Sr Ir2 O5                               
   1.00000000000000     
     5.3139406628790793   -0.0234169388610553    0.0085673089701507
    -0.0261645767006843    5.7443731113266692    0.0275436234502424
     0.0216396003632024    0.0715031710151720   14.8229464235965622
   Sr   Ir   O 
     4     8    16
Direct
  0.5034615062298116  0.9974741210095246  0.1192561772454752
  0.0107405558958362  0.4913678929659824  0.3821305197501701
  0.0074679052535629  0.4874681126116158  0.1146625956047416
  0.5007598192266798  0.0107861485113645  0.3862027518958655
  0.9900454872798718  0.9889102001544927  0.9883121591238293
  0.4860243587547473  0.5006777525309545  0.9869779624119630
  0.0127188124972832  0.0173863305375690  0.2498439287227470
  0.5140159806288622  0.4915823590085751  0.2500786298130819
  0.4916207505759402  0.5030588801133931  0.5125878757481956
  0.9975402876402981  0.9887550464785164  0.5116900639454940
  0.5588278408440601  0.4387926217996636  0.7499715109489458
  0.0412068015286735  0.0640498333645922  0.7506704124910257
  0.2427781084786389  0.7448195497306855  0.4819261798985863
  0.2580714759508069  0.7500427242245848  0.0201065980283985
  0.9856087876223256  0.0432101290682994  0.1190066746125993
  0.5366953611853376  0.4557541617930809  0.3808318551047094
  0.5203045748223758  0.4439897144762739  0.1205780560644598
  0.9701846022212166  0.0395817009492418  0.3796153247644156
  0.3222514604791655  0.8016215818662360  0.2571461528799190
  0.8252235347413901  0.6978024239046050  0.2450101798226569
  0.2632388526939735  0.2369670886372433  0.5047666895798102
  0.3343801472675239  0.2030641947982659  0.9839608311973649
  0.5055392047044336  0.5620556721609304  0.6354274081827711
  0.9601516265796661  0.9843057103540431  0.8673995865245843
  0.9786596136021188  0.9727418232170990  0.6346233854675702
  0.4963541383295862  0.5696825868654258  0.8633927640083456
  0.9045621905422792  0.3726849580262623  0.7521436639212524
  0.3898542144235506  0.1433666808414813  0.7516800622410216
 
  0.00000000E+00  0.00000000E+00  0.00000000E+00
  0.00000000E+00  0.00000000E+00  0.00000000E+00
  0.00000000E+00  0.00000000E+00  0.00000000E+00
  0.00000000E+00  0.00000000E+00  0.00000000E+00
  0.00000000E+00  0.00000000E+00  0.00000000E+00
  0.00000000E+00  0.00000000E+00  0.00000000E+00
  0.00000000E+00  0.00000000E+00  0.00000000E+00
  0.00000000E+00  0.00000000E+00  0.00000000E+00
  0.00000000E+00  0.00000000E+00  0.00000000E+00
  0.00000000E+00  0.00000000E+00  0.00000000E+00
  0.00000000E+00  0.00000000E+00  0.00000000E+00
  0.00000000E+00  0.00000000E+00  0.00000000E+00
  0.00000000E+00  0.00000000E+00  0.00000000E+00
  0.00000000E+00  0.00000000E+00  0.00000000E+00
  0.00000000E+00  0.00000000E+00  0.00000000E+00
  0.00000000E+00  0.00000000E+00  0.00000000E+00
  0.00000000E+00  0.00000000E+00  0.00000000E+00
  0.00000000E+00  0.00000000E+00  0.00000000E+00
  0.00000000E+00  0.00000000E+00  0.00000000E+00
  0.00000000E+00  0.00000000E+00  0.00000000E+00
  0.00000000E+00  0.00000000E+00  0.00000000E+00
  0.00000000E+00  0.00000000E+00  0.00000000E+00
  0.00000000E+00  0.00000000E+00  0.00000000E+00
  0.00000000E+00  0.00000000E+00  0.00000000E+00
  0.00000000E+00  0.00000000E+00  0.00000000E+00
  0.00000000E+00  0.00000000E+00  0.00000000E+00
  0.00000000E+00  0.00000000E+00  0.00000000E+00
  0.00000000E+00  0.00000000E+00  0.00000000E+00
