Ba4 Mn10 O20 F4                         
   1.00000000000000     
    13.1456694446994273    0.0000000000000000   -0.7986771403734573
     0.0000000000000000    3.1312809180003387    0.0000000000000000
    -0.1214795112369861    0.0000000000000000    9.9505204744581341
   Sr   Ir   O 
     2    10    20
Direct
  0.2500237104959524  0.0000000000000000  0.1810529939423731
  0.2499762895040476  0.5000000000000000  0.8189470060576269
  0.0192937256006616  0.5000000000000000  0.9903565126060130
  0.4807062743993384  0.0000000000000000  0.0096434873939870
  0.0108238773380052  0.0000000000000000  0.2608179509051851
  0.5019115534780099  0.5000000000000000  0.2595720647163660
  0.9980884465219901  0.0000000000000000  0.7404279352836340
  0.4891761226619948  0.5000000000000000  0.7391820490948149
  0.3419707641941656  0.0000000000000000  0.4778227564871287
  0.8479698883645597  0.5000000000000000  0.4797045654225514
  0.6520301116354403  0.0000000000000000  0.5202954345774486
  0.1580292358058344  0.5000000000000000  0.5221772435128713
  0.5740883782578905  0.0000000000000000  0.1793923215114717
  0.0969674254746167  0.5000000000000000  0.1807390383828036
  0.4030325745253833  0.0000000000000000  0.8192609616171964
  0.9259116217421095  0.5000000000000000  0.8206076784885283
  0.0905994872729110  0.0000000000000000  0.4338714444875720
  0.5864124691833368  0.5000000000000000  0.4254628462873740
  0.9135875308166632  0.0000000000000000  0.5745371537126189
  0.4094005127270890  0.5000000000000000  0.5661285555124280
  0.7667820195679980  0.0000000000000000  0.3959240710292278
  0.2646158268650538  0.5000000000000000  0.3764942627658527
  0.2353841731349462  0.0000000000000000  0.6235057372341473
  0.7332179804320020  0.5000000000000000  0.6040759289707722
  0.4207923432038925  0.0000000000000000  0.3187664934266792
  0.9317602415341142  0.5000000000000000  0.3219301019376459
  0.5682397584658858  0.0000000000000000  0.6780698980623541
  0.0792076567961075  0.5000000000000000  0.6812335065733208
  0.9490529547902185  0.0000000000000000  0.0701989390483888
  0.3837316772214905  0.5000000000000000  0.0796838903563284
  0.1162683227785095  0.0000000000000000  0.9203161096436716
  0.5509470452097815  0.5000000000000000  0.9298010609516112
 
  0.00000000E+00  0.00000000E+00  0.00000000E+00
  0.00000000E+00  0.00000000E+00  0.00000000E+00
  0.00000000E+00  0.00000000E+00  0.00000000E+00
  0.00000000E+00  0.00000000E+00  0.00000000E+00
  0.00000000E+00  0.00000000E+00  0.00000000E+00
  0.00000000E+00  0.00000000E+00  0.00000000E+00
  0.00000000E+00  0.00000000E+00  0.00000000E+00
  0.00000000E+00  0.00000000E+00  0.00000000E+00
  0.00000000E+00  0.00000000E+00  0.00000000E+00
  0.00000000E+00  0.00000000E+00  0.00000000E+00
  0.00000000E+00  0.00000000E+00  0.00000000E+00
  0.00000000E+00  0.00000000E+00  0.00000000E+00
  0.00000000E+00  0.00000000E+00  0.00000000E+00
  0.00000000E+00  0.00000000E+00  0.00000000E+00
  0.00000000E+00  0.00000000E+00  0.00000000E+00
  0.00000000E+00  0.00000000E+00  0.00000000E+00
  0.00000000E+00  0.00000000E+00  0.00000000E+00
  0.00000000E+00  0.00000000E+00  0.00000000E+00
  0.00000000E+00  0.00000000E+00  0.00000000E+00
  0.00000000E+00  0.00000000E+00  0.00000000E+00
  0.00000000E+00  0.00000000E+00  0.00000000E+00
  0.00000000E+00  0.00000000E+00  0.00000000E+00
  0.00000000E+00  0.00000000E+00  0.00000000E+00
  0.00000000E+00  0.00000000E+00  0.00000000E+00
  0.00000000E+00  0.00000000E+00  0.00000000E+00
  0.00000000E+00  0.00000000E+00  0.00000000E+00
  0.00000000E+00  0.00000000E+00  0.00000000E+00
  0.00000000E+00  0.00000000E+00  0.00000000E+00
  0.00000000E+00  0.00000000E+00  0.00000000E+00
  0.00000000E+00  0.00000000E+00  0.00000000E+00
  0.00000000E+00  0.00000000E+00  0.00000000E+00
  0.00000000E+00  0.00000000E+00  0.00000000E+00
