slab
1.0
        5.5554008484         0.0000000000         0.0000000000
        0.0000000000         5.6354160309         0.0000000000
        0.0000000000         0.0000000000        15.8002014160
   Sr   Ir    O
    4    8   16
Direct
     0.508316934         0.042697854         0.125000000
     0.008316903         0.457302153         0.375000000
     0.508316934         0.042697854         0.625000000
     0.008316903         0.457302153         0.875000000
     0.000000000         0.000000000         0.250000000
     0.000000000         0.000000000         0.000000000
     0.500000000         0.500000000         0.250000000
     0.500000000         0.500000000         0.000000000
     0.000000000         0.000000000         0.750000000
     0.000000000         0.000000000         0.500000000
     0.500000000         0.500000000         0.750000000
     0.500000000         0.500000000         0.500000000
     0.295734882         0.205399305         0.479972631
     0.795734882         0.294600695         0.229972631
     0.795734882         0.294600695         0.020027373
     0.704265118         0.794600725         0.020027373
     0.204265133         0.705399275         0.270027369
     0.704265118         0.794600725         0.229972631
     0.204265133         0.705399275         0.479972631
     0.295734882         0.205399305         0.270027369
     0.295734882         0.205399305         0.979972601
     0.795734882         0.294600695         0.729972601
     0.795734882         0.294600695         0.520027399
     0.704265118         0.794600725         0.520027399
     0.204265133         0.705399275         0.770027399
     0.704265118         0.794600725         0.729972601
     0.204265133         0.705399275         0.979972601
     0.295734882         0.205399305         0.770027399
