Sr Ir2 O5                               
   1.00000000000000     
     5.5142204141922360   -0.0089532555392749   -0.0033485919173206
    -0.0099783035895028    5.7997636927914531   -0.0044986702014002
    -0.0096926600894266   -0.0115455063911545   14.8723093384134124
   Sr   Ir   O 
     4     8    16
Direct
  0.4927186917488910  0.0245514013667574  0.1247485163731312
  0.4963628623532301  0.0335289836123636  0.3747212619465472
  0.4828126802015404  0.9689200332682333  0.8746312894281942
  0.4871272841309988  0.9786582024355184  0.6239017633828041
  0.9748375436902990  0.9874817523941317  0.0000294449244862
  0.4550495520539357  0.4972193052858458  0.9974553867026472
  0.9832226945858480  0.9533124007111979  0.2503325792947990
  0.5754298886680758  0.5374191074703347  0.2498183873384789
  0.4752904275177272  0.5121769467908024  0.4999694654725673
  0.9748997941067401  0.0124798176295897  0.5000161687121292
  0.5751155269645949  0.4626228260469318  0.7499343547265909
  0.9701802318503780  0.0372373479096808  0.7514996075244724
  0.3109150802328315  0.7913520850532905  0.4909447581058757
  0.3002549295852717  0.7825042911162186  0.0085135285087077
  0.9684365201034311  0.9917355720134253  0.1253533165170282
  0.5205490249128886  0.4701859502585037  0.3732507691406539
  0.5133563011349764  0.4663345304061224  0.1256979000403433
  0.9734112653971820  0.0021756041885013  0.3750517324081528
  0.3457125762339572  0.7960626192600344  0.2509103191210258
  0.9004039828537316  0.6153516027636172  0.2501878753063380
  0.3132668870114230  0.2254099296081264  0.5066364933706851
  0.3055650817958409  0.2087439306533909  0.9924431619594785
  0.5340582641236011  0.5335560753039275  0.6262386463361906
  0.9620848422603743  0.9892512121127055  0.8751693411203547
  0.9658625519235713  0.0116904847700212  0.6251772078246347
  0.5096646149910740  0.5313316330142968  0.8722394794103323
  0.8972706299523026  0.3730633040202278  0.7546345409378148
  0.3454282696152973  0.2056430505361959  0.7504927040655218
 
  0.00000000E+00  0.00000000E+00  0.00000000E+00
  0.00000000E+00  0.00000000E+00  0.00000000E+00
  0.00000000E+00  0.00000000E+00  0.00000000E+00
  0.00000000E+00  0.00000000E+00  0.00000000E+00
  0.00000000E+00  0.00000000E+00  0.00000000E+00
  0.00000000E+00  0.00000000E+00  0.00000000E+00
  0.00000000E+00  0.00000000E+00  0.00000000E+00
  0.00000000E+00  0.00000000E+00  0.00000000E+00
  0.00000000E+00  0.00000000E+00  0.00000000E+00
  0.00000000E+00  0.00000000E+00  0.00000000E+00
  0.00000000E+00  0.00000000E+00  0.00000000E+00
  0.00000000E+00  0.00000000E+00  0.00000000E+00
  0.00000000E+00  0.00000000E+00  0.00000000E+00
  0.00000000E+00  0.00000000E+00  0.00000000E+00
  0.00000000E+00  0.00000000E+00  0.00000000E+00
  0.00000000E+00  0.00000000E+00  0.00000000E+00
  0.00000000E+00  0.00000000E+00  0.00000000E+00
  0.00000000E+00  0.00000000E+00  0.00000000E+00
  0.00000000E+00  0.00000000E+00  0.00000000E+00
  0.00000000E+00  0.00000000E+00  0.00000000E+00
  0.00000000E+00  0.00000000E+00  0.00000000E+00
  0.00000000E+00  0.00000000E+00  0.00000000E+00
  0.00000000E+00  0.00000000E+00  0.00000000E+00
  0.00000000E+00  0.00000000E+00  0.00000000E+00
  0.00000000E+00  0.00000000E+00  0.00000000E+00
  0.00000000E+00  0.00000000E+00  0.00000000E+00
  0.00000000E+00  0.00000000E+00  0.00000000E+00
  0.00000000E+00  0.00000000E+00  0.00000000E+00
