Sr Ir2 O5                               
   1.00000000000000     
     5.5142204141922360   -0.0089532555392749   -0.0033485919173206
    -0.0099783035895028    5.7997636927914531   -0.0044986702014002
    -0.0096926600894266   -0.0115455063911545   14.8723093384134124
   Sr   Ir   O 
     4     8    16
Direct
  0.4927186917488921  0.0245514013667565  0.1247485163731328
  0.4963628623532297  0.0335289836123629  0.3747212619465450
  0.4828126802015402  0.9689200332682356  0.8746312894281941
  0.4871272841310004  0.9786582024355163  0.6239017633828032
 -0.0251624563096987 -0.0125182476058683  0.0000294449244874
  0.4550495520539379  0.4972193052858455 -0.0025446132973556
 -0.0167773054141488  0.9533124007111966  0.2503325792947978
  0.5754298886680723  0.5374191074703352  0.2498183873384816
  0.4752904275177278  0.5121769467907998  0.4999694654725657
 -0.0251002058932566  0.0124798176295904  0.5000161687121275
  0.5751155269645950  0.4626228260469304  0.7499343547265939
 -0.0298197681496235  0.0372373479096839  0.7514996075244730
  0.3109150802328337  0.7913520850532871  0.4909447581058742
  0.3002549295852693  0.7825042911162210  0.0085135285087082
  0.9684365201034293 -0.0082644279865772  0.1253533165170295
  0.5205490249128893  0.4701859502585066  0.3732507691406518
  0.5133563011349750  0.4663345304061209  0.1256979000403464
  0.9734112653971825  0.0021756041885019  0.3750517324081554
  0.3457125762339582  0.7960626192600345  0.2509103191210268
  0.9004039828537345  0.6153516027636187  0.2501878753063394
  0.3132668870114217  0.2254099296081257  0.5066364933706874
  0.3055650817958433  0.2087439306533929  0.9924431619594799
  0.5340582641236008  0.5335560753039292  0.6262386463361880
  0.9620848422603725  0.9892512121127052  0.8751693411203572
  0.9658625519235686  0.0116904847700219  0.6251772078246327
  0.5096646149910734  0.5313316330142982  0.8722394794103311
  0.8972706299523056  0.3730633040202271  0.7546345409378182
  0.3454282696152943  0.2056430505361959  0.7504927040655246
 
  0.00000000E+00  0.00000000E+00  0.00000000E+00
  0.00000000E+00  0.00000000E+00  0.00000000E+00
  0.00000000E+00  0.00000000E+00  0.00000000E+00
  0.00000000E+00  0.00000000E+00  0.00000000E+00
  0.00000000E+00  0.00000000E+00  0.00000000E+00
  0.00000000E+00  0.00000000E+00  0.00000000E+00
  0.00000000E+00  0.00000000E+00  0.00000000E+00
  0.00000000E+00  0.00000000E+00  0.00000000E+00
  0.00000000E+00  0.00000000E+00  0.00000000E+00
  0.00000000E+00  0.00000000E+00  0.00000000E+00
  0.00000000E+00  0.00000000E+00  0.00000000E+00
  0.00000000E+00  0.00000000E+00  0.00000000E+00
  0.00000000E+00  0.00000000E+00  0.00000000E+00
  0.00000000E+00  0.00000000E+00  0.00000000E+00
  0.00000000E+00  0.00000000E+00  0.00000000E+00
  0.00000000E+00  0.00000000E+00  0.00000000E+00
  0.00000000E+00  0.00000000E+00  0.00000000E+00
  0.00000000E+00  0.00000000E+00  0.00000000E+00
  0.00000000E+00  0.00000000E+00  0.00000000E+00
  0.00000000E+00  0.00000000E+00  0.00000000E+00
  0.00000000E+00  0.00000000E+00  0.00000000E+00
  0.00000000E+00  0.00000000E+00  0.00000000E+00
  0.00000000E+00  0.00000000E+00  0.00000000E+00
  0.00000000E+00  0.00000000E+00  0.00000000E+00
  0.00000000E+00  0.00000000E+00  0.00000000E+00
  0.00000000E+00  0.00000000E+00  0.00000000E+00
  0.00000000E+00  0.00000000E+00  0.00000000E+00
  0.00000000E+00  0.00000000E+00  0.00000000E+00
