slab                                    
   1.00000000000000     
     5.2120608563414770    0.0001788391249228    0.0000631598057757
     0.0001802234490398    5.4079649987626306   -0.0161664969797241
     0.0003046721142897   -0.0459897268525286   15.5839663695308808
   Sr   Ir   O 
     4     8    16
Direct
  0.4925784953689742  0.0402758059905892  0.1166845058114703
  0.5104494126879189  0.9588039532657504  0.3839089427415630
  0.0096599350547848  0.5421001266877994  0.1162503846572136
  0.9925264118488855  0.4597491047155984  0.3833310305519362
  0.0000281853599020  0.0000194202343096  0.2500067572711728
  0.0055965109123761  0.0010606620278608  0.9945964870894599
  0.4999953817117344  0.4999763526426761  0.2500039068124380
  0.4944068674717101  0.5010689392240906  0.9945966010876575
  0.9999830908001570  0.9999811611780842  0.7500011341483983
  0.9942822210507956  0.9988843422049669  0.5054175231213947
  0.4999844913172282  0.4999893605288079  0.7500028324541930
  0.5036087923753030  0.4991673495662283  0.5049212297012673
  0.2736544189520984  0.2247128195969808  0.4905659862334772
  0.7876233457266224  0.2840574812810104  0.2183689044849118
  0.7746729866529520  0.2753601516312258  0.0096325335180794
  0.7253589603046962  0.7752254684647752  0.0091524727234500
  0.2132214529543788  0.7166590682418104  0.2817301203642657
  0.7131855218890664  0.7834431739712571  0.2185184924783741
  0.2248728713329697  0.7253052854125031  0.4913746751434829
  0.2874835627901788  0.2159759928020435  0.2818483430506546
  0.2711144164363901  0.2319018733053255  0.9827430888901887
  0.7499492849758767  0.2499752263894237  0.7500500444371454
  0.7689358412448328  0.2672580028143301  0.5164304702040070
  0.7284463267319552  0.7674743552227383  0.5177987410927400
  0.2499397486955743  0.7499513855621274  0.7499904765103906
  0.7499231096840049  0.7499827565239627  0.7500482961026762
  0.2285512862834338  0.7316664288898806  0.9820276368296561
  0.2499671873851739  0.2499739586238476  0.7499983904883223
 
  0.00000000E+00  0.00000000E+00  0.00000000E+00
  0.00000000E+00  0.00000000E+00  0.00000000E+00
  0.00000000E+00  0.00000000E+00  0.00000000E+00
  0.00000000E+00  0.00000000E+00  0.00000000E+00
  0.00000000E+00  0.00000000E+00  0.00000000E+00
  0.00000000E+00  0.00000000E+00  0.00000000E+00
  0.00000000E+00  0.00000000E+00  0.00000000E+00
  0.00000000E+00  0.00000000E+00  0.00000000E+00
  0.00000000E+00  0.00000000E+00  0.00000000E+00
  0.00000000E+00  0.00000000E+00  0.00000000E+00
  0.00000000E+00  0.00000000E+00  0.00000000E+00
  0.00000000E+00  0.00000000E+00  0.00000000E+00
  0.00000000E+00  0.00000000E+00  0.00000000E+00
  0.00000000E+00  0.00000000E+00  0.00000000E+00
  0.00000000E+00  0.00000000E+00  0.00000000E+00
  0.00000000E+00  0.00000000E+00  0.00000000E+00
  0.00000000E+00  0.00000000E+00  0.00000000E+00
  0.00000000E+00  0.00000000E+00  0.00000000E+00
  0.00000000E+00  0.00000000E+00  0.00000000E+00
  0.00000000E+00  0.00000000E+00  0.00000000E+00
  0.00000000E+00  0.00000000E+00  0.00000000E+00
  0.00000000E+00  0.00000000E+00  0.00000000E+00
  0.00000000E+00  0.00000000E+00  0.00000000E+00
  0.00000000E+00  0.00000000E+00  0.00000000E+00
  0.00000000E+00  0.00000000E+00  0.00000000E+00
  0.00000000E+00  0.00000000E+00  0.00000000E+00
  0.00000000E+00  0.00000000E+00  0.00000000E+00
  0.00000000E+00  0.00000000E+00  0.00000000E+00
