Ba4 Mn10 O20 F4                         
   1.00000000000000     
    12.8224459472470116    0.0000000000000000   -0.5836683620251623
     0.0000000000000000    3.1515150590896606    0.0000000000000000
     0.0409384662999337    0.0000000000000000    9.8727095969361933
   Sr   Ir   O 
     3    10    20
Direct
  0.2582861163484918  0.0000000000000000  0.1802536009696559
  0.7403440900649609  0.0000000000000000  0.8444415151331567
  0.2391157774886033  0.5000000000000000  0.8152702233325075
  0.0228501697814453  0.5000000000000000 -0.0116906123409216
  0.4973368173098149  0.0000000000000000  0.0086126136526762
  0.0076478194579251  0.0000000000000000  0.2485312564694984
  0.5142132902296896  0.5000000000000000  0.2656863212962191
 -0.0250903833092386  0.0000000000000000  0.7401385800787786
  0.4866523369265403  0.5000000000000000  0.7480854065008836
  0.3403480256231863  0.0000000000000000  0.4830817013230220
  0.8411261437451845  0.5000000000000000  0.4666268102671765
  0.6594108936357879  0.0000000000000000  0.5267241441013131
  0.1463246882303468  0.5000000000000000  0.5184796111603975
  0.5893244050143739  0.0000000000000000  0.1797212831869957
  0.0986428095672888  0.5000000000000000  0.1740016883982257
  0.4013385263514443  0.0000000000000000  0.8294160862120549
  0.9047619808816825  0.5000000000000000  0.8332314017753727
  0.0869977277411669  0.0000000000000000  0.4215655817660108
  0.5956313841807754  0.5000000000000000  0.4339032967417293
  0.9091425852985774  0.0000000000000000  0.5549087928312436
  0.3998716497294574  0.5000000000000000  0.5812582399175309
  0.7634752348124563  0.0000000000000000  0.3774804810488008
  0.2658039373035801  0.5000000000000000  0.3789157528285018
  0.2208850165526667  0.0000000000000000  0.6202661390601828
  0.7364237412621347  0.5000000000000000  0.6316121205733762
  0.4319116377900073  0.0000000000000000  0.3289425866364009
  0.9232673148311383  0.5000000000000000  0.3037892773285155
  0.5722251239144102  0.0000000000000000  0.6908718929003062
  0.0583188668039044  0.5000000000000000  0.6775328780378066
  0.9364263708259314  0.0000000000000000  0.0548797066302746
  0.4088179177829298  0.5000000000000000  0.0867854383695902
  0.1392166107160450  0.0000000000000000  0.9553920892410198
  0.5823513731072905  0.5000000000000000  0.9270840945716958
 
  0.00000000E+00  0.00000000E+00  0.00000000E+00
  0.00000000E+00  0.00000000E+00  0.00000000E+00
  0.00000000E+00  0.00000000E+00  0.00000000E+00
  0.00000000E+00  0.00000000E+00  0.00000000E+00
  0.00000000E+00  0.00000000E+00  0.00000000E+00
  0.00000000E+00  0.00000000E+00  0.00000000E+00
  0.00000000E+00  0.00000000E+00  0.00000000E+00
  0.00000000E+00  0.00000000E+00  0.00000000E+00
  0.00000000E+00  0.00000000E+00  0.00000000E+00
  0.00000000E+00  0.00000000E+00  0.00000000E+00
  0.00000000E+00  0.00000000E+00  0.00000000E+00
  0.00000000E+00  0.00000000E+00  0.00000000E+00
  0.00000000E+00  0.00000000E+00  0.00000000E+00
  0.00000000E+00  0.00000000E+00  0.00000000E+00
  0.00000000E+00  0.00000000E+00  0.00000000E+00
  0.00000000E+00  0.00000000E+00  0.00000000E+00
  0.00000000E+00  0.00000000E+00  0.00000000E+00
  0.00000000E+00  0.00000000E+00  0.00000000E+00
  0.00000000E+00  0.00000000E+00  0.00000000E+00
  0.00000000E+00  0.00000000E+00  0.00000000E+00
  0.00000000E+00  0.00000000E+00  0.00000000E+00
  0.00000000E+00  0.00000000E+00  0.00000000E+00
  0.00000000E+00  0.00000000E+00  0.00000000E+00
  0.00000000E+00  0.00000000E+00  0.00000000E+00
  0.00000000E+00  0.00000000E+00  0.00000000E+00
  0.00000000E+00  0.00000000E+00  0.00000000E+00
  0.00000000E+00  0.00000000E+00  0.00000000E+00
  0.00000000E+00  0.00000000E+00  0.00000000E+00
  0.00000000E+00  0.00000000E+00  0.00000000E+00
  0.00000000E+00  0.00000000E+00  0.00000000E+00
  0.00000000E+00  0.00000000E+00  0.00000000E+00
  0.00000000E+00  0.00000000E+00  0.00000000E+00
  0.00000000E+00  0.00000000E+00  0.00000000E+00
