slab                                    
   1.00000000000000     
     5.2113914389773983    0.0456740186652576   -0.0000556254533443
     0.0469510026848639    5.3904625694756616   -0.0000045922154519
    -0.0001345938581070    0.0000257554000564   15.6210201292622610
   Sr   Ir   O 
     4     8    16
Direct
  0.4761904481518247  0.0303356336879227  0.1249982882180121
  0.5240247833904483  0.9696922232727364  0.3749992333677608
  0.4763383770866746  0.0302421923526623  0.6250186137676486
  0.5236193883258389  0.9697601800534784  0.8749997795770220
  0.0000040492762628 -0.0000189202304370  0.2500003648281136
 -0.0000120319811341 -0.0000032391103640 -0.0000008025166290
  0.5000032959318366  0.4999987089902068  0.2500001288041049
  0.4999941260014103  0.5000048618628538 -0.0000002877531486
 -0.0000015708990795 -0.0000025169470062  0.7500002819728314
 -0.0000013132700840 -0.0000042070298771  0.4999997265317307
  0.5000003610839349  0.4999987976318662  0.7499993408836763
  0.5000044280048594  0.5000045260547515  0.5000003773649072
  0.2918174379254505  0.2103382761957709  0.4825156753552813
  0.7770259851893980  0.2753742779160090  0.2490335597069379
  0.7770563475604350  0.2754833403257507  0.0010098476746413
  0.7081154687714591  0.7896514959168264  0.0173888443905598
  0.2227829703512957  0.7243634447735069  0.2510183844930138
  0.7082029925123029  0.7895795153967350  0.2325336560558741
  0.2229304150817501  0.7245435266827719  0.4990003324189837
  0.2917224289045245  0.2104435899850480  0.2674858895847952
  0.2916006638300452  0.2105626006652000  0.9825447919099699
  0.7771280026594412  0.2755118885201350  0.7489870562501565
  0.7771512779198918  0.2755334199439678  0.5010266748798579
  0.7083448355560393  0.7894460299969984  0.5174983229711646
  0.2229683963829337  0.7245795376295231  0.7509701551817725
  0.7083496867800817  0.7895331832074921  0.7325567650052049
  0.2228981853495596  0.7245465920870309  0.9989761013799701
  0.2917406841225985  0.2105010541684327  0.7674389056957894
 
  0.00000000E+00  0.00000000E+00  0.00000000E+00
  0.00000000E+00  0.00000000E+00  0.00000000E+00
  0.00000000E+00  0.00000000E+00  0.00000000E+00
  0.00000000E+00  0.00000000E+00  0.00000000E+00
  0.00000000E+00  0.00000000E+00  0.00000000E+00
  0.00000000E+00  0.00000000E+00  0.00000000E+00
  0.00000000E+00  0.00000000E+00  0.00000000E+00
  0.00000000E+00  0.00000000E+00  0.00000000E+00
  0.00000000E+00  0.00000000E+00  0.00000000E+00
  0.00000000E+00  0.00000000E+00  0.00000000E+00
  0.00000000E+00  0.00000000E+00  0.00000000E+00
  0.00000000E+00  0.00000000E+00  0.00000000E+00
  0.00000000E+00  0.00000000E+00  0.00000000E+00
  0.00000000E+00  0.00000000E+00  0.00000000E+00
  0.00000000E+00  0.00000000E+00  0.00000000E+00
  0.00000000E+00  0.00000000E+00  0.00000000E+00
  0.00000000E+00  0.00000000E+00  0.00000000E+00
  0.00000000E+00  0.00000000E+00  0.00000000E+00
  0.00000000E+00  0.00000000E+00  0.00000000E+00
  0.00000000E+00  0.00000000E+00  0.00000000E+00
  0.00000000E+00  0.00000000E+00  0.00000000E+00
  0.00000000E+00  0.00000000E+00  0.00000000E+00
  0.00000000E+00  0.00000000E+00  0.00000000E+00
  0.00000000E+00  0.00000000E+00  0.00000000E+00
  0.00000000E+00  0.00000000E+00  0.00000000E+00
  0.00000000E+00  0.00000000E+00  0.00000000E+00
  0.00000000E+00  0.00000000E+00  0.00000000E+00
  0.00000000E+00  0.00000000E+00  0.00000000E+00
