Sr Ir2 O5                               
   1.00000000000000     
     5.4050572031987327   -0.0080112151871162   -0.1433549540931190
    -0.0117118703124962    5.1995141138750336    0.0086694310252085
    -0.3970782808797029    0.0024575697397934   14.7962653495349752
   Sr   Ir   O 
     4     8    16
Direct
  0.4616659004950760  0.0539814783705719  0.1160497580752305
  0.1196565306274900  0.4722681008030162  0.3757681499249404
  0.4395617124913940  0.9524195308299673  0.6157609970692650
  0.0961372409859203  0.5359020361955916  0.8843240551731874
  0.9488287223307503  0.0148561934648873  0.0051315895381441
  0.6062994903901393  0.5422175806631939  0.9967707781989888
  0.0052375467522830  0.9853158842685500  0.2532606216363369
  0.5698463506780095  0.5391173508056216  0.2477055815179702
  0.6430147597358721  0.4573371571863513  0.4985053855120520
  0.9310937352104163  0.9913747069024609  0.5032077666994024
  0.5513937310919661  0.4610575253981449  0.7498277019740204
  0.9905349726050720  0.0216252837836508  0.7542924711757296
  0.9746495242035481  0.6235975976952413  0.5198523354373304
  0.3791867611226215  0.8162225463045275  0.9747338518364310
  0.9778354489941149  0.9578896917496106  0.1275111950333868
  0.6240669468366326  0.5287169697433690  0.3741656609867491
  0.5776579188166944  0.5649144400378865  0.1210440246236901
  0.9692099743659858  0.9760874013310198  0.3789502870087537
  0.2963493554753145  0.7718309410497278  0.2586375107614559
  0.7808775904890611  0.2578935888310779  0.2394386674493033
  0.3817518443946069  0.2119164670785392  0.4769822055601136
  0.1611487611466320  0.3091347755764073  0.0233474377403333
  0.5718178458795803  0.4315680006881412  0.6227091641046374
  0.9609007442570872  0.0317568446856879  0.8802164193228105
  0.9622474872718266  0.0391767527031980  0.6273278146892702
  0.5921202433519206  0.4689985777070287  0.8756901503146090
  0.7581292753977424  0.7507304617114871  0.7436645710634628
  0.2780675846022131  0.2320921144350571  0.7551238475723526
 
  0.00000000E+00  0.00000000E+00  0.00000000E+00
  0.00000000E+00  0.00000000E+00  0.00000000E+00
  0.00000000E+00  0.00000000E+00  0.00000000E+00
  0.00000000E+00  0.00000000E+00  0.00000000E+00
  0.00000000E+00  0.00000000E+00  0.00000000E+00
  0.00000000E+00  0.00000000E+00  0.00000000E+00
  0.00000000E+00  0.00000000E+00  0.00000000E+00
  0.00000000E+00  0.00000000E+00  0.00000000E+00
  0.00000000E+00  0.00000000E+00  0.00000000E+00
  0.00000000E+00  0.00000000E+00  0.00000000E+00
  0.00000000E+00  0.00000000E+00  0.00000000E+00
  0.00000000E+00  0.00000000E+00  0.00000000E+00
  0.00000000E+00  0.00000000E+00  0.00000000E+00
  0.00000000E+00  0.00000000E+00  0.00000000E+00
  0.00000000E+00  0.00000000E+00  0.00000000E+00
  0.00000000E+00  0.00000000E+00  0.00000000E+00
  0.00000000E+00  0.00000000E+00  0.00000000E+00
  0.00000000E+00  0.00000000E+00  0.00000000E+00
  0.00000000E+00  0.00000000E+00  0.00000000E+00
  0.00000000E+00  0.00000000E+00  0.00000000E+00
  0.00000000E+00  0.00000000E+00  0.00000000E+00
  0.00000000E+00  0.00000000E+00  0.00000000E+00
  0.00000000E+00  0.00000000E+00  0.00000000E+00
  0.00000000E+00  0.00000000E+00  0.00000000E+00
  0.00000000E+00  0.00000000E+00  0.00000000E+00
  0.00000000E+00  0.00000000E+00  0.00000000E+00
  0.00000000E+00  0.00000000E+00  0.00000000E+00
  0.00000000E+00  0.00000000E+00  0.00000000E+00
