Sr Ir2 O5                               
   1.00000000000000     
     5.4050643104459324   -0.0080309391654673   -0.1433570570655433
    -0.0117308251380972    5.1995149835288821    0.0086708095420556
    -0.3970841452468314    0.0024629011414361   14.7962810173917383
   Sr   Ir   O 
     4     8    16
Direct
  0.4616647092238087  0.0539814235682478  0.1160496742815446
  0.1196574551675756  0.4722683651316616  0.3757690568921659
  0.4395606559748314  0.9524190493564209  0.6157609179306757
  0.0961353283903321  0.5359017423123303  0.8843236481363678
  0.9488349804918290  0.0148518447497826  0.0051330045427356
  0.6062981668880773  0.5422181221754088  0.9967706156308386
  0.0052356176619685  0.9853158729746718  0.2532613749098104
  0.5698475057862551  0.5391140444197243  0.2477053805202749
  0.6430139736138084  0.4573377332996438  0.4985054021384101
  0.9310925386778638  0.9913748332729931  0.5032076952816188
  0.5514021685847875  0.4610728340066302  0.7498270806636649
  0.9905364964413013  0.0216230773100338  0.7542935341521575
  0.9746473084098096  0.6235972086455686  0.5198528885906207
  0.3791857792265914  0.8162227030354980  0.9747337067761020
  0.9778342909271450  0.9578916697690528  0.1275113149446555
  0.6240646107038055  0.5287181527052980  0.3741655453407642
  0.5776573386378560  0.5649130477756674  0.1210438723449431
  0.9692108137321660  0.9760848201808431  0.3789501443680149
  0.2963471798903637  0.7718280084713329  0.2586358701365636
  0.7808817391710318  0.2578965502994817  0.2394402121627836
  0.3817511274925556  0.2119147829052885  0.4769816230112308
  0.1611510242702626  0.3091323616289163  0.0233471078003619
  0.5718163729961583  0.4315665058473083  0.6227090629407940
  0.9608974057423424  0.0317542906914329  0.8802164803359270
  0.9622477627904544  0.0391782236449599  0.6273275136337948
  0.5921191964571819  0.4690009393946123  0.8756898294257474
  0.7581291183848207  0.7507301268702286  0.7436629401261342
  0.2780673342649893  0.2320916655569613  0.7551245029812643
 
  0.00000000E+00  0.00000000E+00  0.00000000E+00
  0.00000000E+00  0.00000000E+00  0.00000000E+00
  0.00000000E+00  0.00000000E+00  0.00000000E+00
  0.00000000E+00  0.00000000E+00  0.00000000E+00
  0.00000000E+00  0.00000000E+00  0.00000000E+00
  0.00000000E+00  0.00000000E+00  0.00000000E+00
  0.00000000E+00  0.00000000E+00  0.00000000E+00
  0.00000000E+00  0.00000000E+00  0.00000000E+00
  0.00000000E+00  0.00000000E+00  0.00000000E+00
  0.00000000E+00  0.00000000E+00  0.00000000E+00
  0.00000000E+00  0.00000000E+00  0.00000000E+00
  0.00000000E+00  0.00000000E+00  0.00000000E+00
  0.00000000E+00  0.00000000E+00  0.00000000E+00
  0.00000000E+00  0.00000000E+00  0.00000000E+00
  0.00000000E+00  0.00000000E+00  0.00000000E+00
  0.00000000E+00  0.00000000E+00  0.00000000E+00
  0.00000000E+00  0.00000000E+00  0.00000000E+00
  0.00000000E+00  0.00000000E+00  0.00000000E+00
  0.00000000E+00  0.00000000E+00  0.00000000E+00
  0.00000000E+00  0.00000000E+00  0.00000000E+00
  0.00000000E+00  0.00000000E+00  0.00000000E+00
  0.00000000E+00  0.00000000E+00  0.00000000E+00
  0.00000000E+00  0.00000000E+00  0.00000000E+00
  0.00000000E+00  0.00000000E+00  0.00000000E+00
  0.00000000E+00  0.00000000E+00  0.00000000E+00
  0.00000000E+00  0.00000000E+00  0.00000000E+00
  0.00000000E+00  0.00000000E+00  0.00000000E+00
  0.00000000E+00  0.00000000E+00  0.00000000E+00
