Mn10 O20                                
   1.00000000000000     
    13.6379100942024873    0.0000000000000000   -0.7608283392532167
     0.0000000000000000    3.1065612570699339    0.0000000000000000
    -0.1096166157657069    0.0000000000000000    9.8880336678866758
   Ir   O 
    10    20
Direct
  0.0000000000000000  0.5000000000000000  0.0000000000000000
  0.5000000000000000  0.0000000000000000  0.0000000000000000
  0.0046278313907389  0.0000000000000000  0.2668097138321964
  0.5046278313907391  0.5000000000000000  0.2668097138321964
 -0.0046278313907389  0.0000000000000000  0.7331902861678036
  0.4953721686092611  0.5000000000000000  0.7331902861678036
  0.3433170208308386 -0.0000000000000000  0.4781194874846640
  0.8433170208308384  0.5000000000000000  0.4781194874846640
  0.6566829791691616  0.0000000000000000  0.5218805125153358
  0.1566829791691614  0.5000000000000000  0.5218805125153358
  0.5746969582594276 -0.0000000000000000  0.1848110865801791
  0.0746969582594275  0.5000000000000000  0.1848110865801791
  0.4253030417405725 -0.0000000000000000  0.8151889134198211
  0.9253030417405724  0.5000000000000000  0.8151889134198211
  0.0908565158754862 -0.0000000000000000  0.4317699670199067
  0.5908565158754862  0.5000000000000000  0.4317699670199067
  0.9091434841245138  0.0000000000000000  0.5682300329800932
  0.4091434841245137  0.5000000000000000  0.5682300329800932
  0.7656341461394424 -0.0000000000000000  0.3939111434163365
  0.2656341461394423  0.5000000000000000  0.3939111434163365
  0.2343658538605579  0.0000000000000000  0.6060888565836637
  0.7343658538605576  0.5000000000000000  0.6060888565836637
  0.4333389849698017  0.0000000000000000  0.3345019700657249
  0.9333389849698022  0.5000000000000000  0.3345019700657249
  0.5666610150301978  0.0000000000000000  0.6654980299342750
  0.0666610150301981  0.5000000000000000  0.6654980299342750
  0.9321014735814089 -0.0000000000000000  0.0861296299578482
  0.4321014735814087  0.5000000000000000  0.0861296299578482
  0.0678985264185914 -0.0000000000000000  0.9138703700421517
  0.5678985264185911  0.5000000000000000  0.9138703700421517
 
  0.00000000E+00  0.00000000E+00  0.00000000E+00
  0.00000000E+00  0.00000000E+00  0.00000000E+00
  0.00000000E+00  0.00000000E+00  0.00000000E+00
  0.00000000E+00  0.00000000E+00  0.00000000E+00
  0.00000000E+00  0.00000000E+00  0.00000000E+00
  0.00000000E+00  0.00000000E+00  0.00000000E+00
  0.00000000E+00  0.00000000E+00  0.00000000E+00
  0.00000000E+00  0.00000000E+00  0.00000000E+00
  0.00000000E+00  0.00000000E+00  0.00000000E+00
  0.00000000E+00  0.00000000E+00  0.00000000E+00
  0.00000000E+00  0.00000000E+00  0.00000000E+00
  0.00000000E+00  0.00000000E+00  0.00000000E+00
  0.00000000E+00  0.00000000E+00  0.00000000E+00
  0.00000000E+00  0.00000000E+00  0.00000000E+00
  0.00000000E+00  0.00000000E+00  0.00000000E+00
  0.00000000E+00  0.00000000E+00  0.00000000E+00
  0.00000000E+00  0.00000000E+00  0.00000000E+00
  0.00000000E+00  0.00000000E+00  0.00000000E+00
  0.00000000E+00  0.00000000E+00  0.00000000E+00
  0.00000000E+00  0.00000000E+00  0.00000000E+00
  0.00000000E+00  0.00000000E+00  0.00000000E+00
  0.00000000E+00  0.00000000E+00  0.00000000E+00
  0.00000000E+00  0.00000000E+00  0.00000000E+00
  0.00000000E+00  0.00000000E+00  0.00000000E+00
  0.00000000E+00  0.00000000E+00  0.00000000E+00
  0.00000000E+00  0.00000000E+00  0.00000000E+00
  0.00000000E+00  0.00000000E+00  0.00000000E+00
  0.00000000E+00  0.00000000E+00  0.00000000E+00
  0.00000000E+00  0.00000000E+00  0.00000000E+00
  0.00000000E+00  0.00000000E+00  0.00000000E+00
