   PREC   = Accurate
   ISMEAR = 2
   SIGMA  = 0.2
   ALGO   = Fast
   EDIFF  = 1E-7
   ENCUT  = 400
   NCORE  = 12
   ISPIN  = 2
   MAGMOM = 10*0.91 20*0.12
   NELM   = 80
   NELMDL = -5
   LWAVE  = .FALSE.
   LCHARG = .FALSE.
   LREAL  = .FALSE.
   LORBIT = 11
   NSW    = 901
   EDIFFG = -1E-2
   IBRION = 2
   ISIF   = 3
