Sr1 Mn10 O20                            
   1.00000000000000     
    13.3272953975616506    0.0000000000000000   -0.7354201269103330
     0.0000000000000000    3.1207513542319898    0.0000000000000000
    -0.0890341417079197    0.0000000000000000    9.8539134628547771
   Sr   Ir   O 
     1    10    20
Direct
  0.7512846335236745  0.5000000000000000  0.1599449488411295
  0.9832948587292520  0.5000000000000000  0.0046403472590981
  0.5107378176121813  0.0000000000000000  0.9951917218710875
  0.0016137421849436  0.0000000000000000  0.2574885245310909
  0.5140990652691713  0.5000000000000000  0.2686861745313465
  0.9873644642422619  0.0000000000000000  0.7338086431601667
  0.5009835406358576  0.5000000000000000  0.7361627949718894
  0.3463382541219815  0.0000000000000000  0.4794233003180466
  0.8376807015701004  0.5000000000000000  0.4762889267081718
  0.6650557010343903  0.0000000000000000  0.5279960013357368
  0.1520332938568174  0.5000000000000000  0.5167405306294981
  0.5956081299544422  0.0000000000000000  0.1805861971028122
  0.0752371733778006  0.5000000000000000  0.1784297209442585
  0.4272388646510379  0.0000000000000000  0.8166925620680558
  0.9138369200135656  0.5000000000000000  0.8162641817612695
  0.0882900186223097  0.0000000000000000  0.4209639181075175
  0.5984175323704264  0.5000000000000000  0.4372090129607713
  0.9051059162056561  0.0000000000000000  0.5634714386698931
  0.4112700856085638  0.5000000000000000  0.5731553976487618
  0.7640668089542260  0.0000000000000000  0.3686078567097937
  0.2677117353551566  0.5000000000000000  0.3938907556681599
  0.2308807099055628  0.0000000000000000  0.6021999055211538
  0.7379032251078570  0.5000000000000000  0.6246429580700905
  0.4367760924016935  0.0000000000000000  0.3300774842936178
  0.9218771328320372  0.5000000000000000  0.3190020124071538
  0.5742674137648081  0.0000000000000000  0.6706197414876058
  0.0623343464276687  0.5000000000000000  0.6662052162630516
  0.8971722466191494  0.0000000000000000  0.0855761147963889
  0.4474873031249871  0.5000000000000000  0.0834113756546344
  0.0528359213221634  0.0000000000000000  0.9224456427518959
  0.5877963506002502  0.5000000000000000  0.9143765929558683
 
  0.00000000E+00  0.00000000E+00  0.00000000E+00
  0.00000000E+00  0.00000000E+00  0.00000000E+00
  0.00000000E+00  0.00000000E+00  0.00000000E+00
  0.00000000E+00  0.00000000E+00  0.00000000E+00
  0.00000000E+00  0.00000000E+00  0.00000000E+00
  0.00000000E+00  0.00000000E+00  0.00000000E+00
  0.00000000E+00  0.00000000E+00  0.00000000E+00
  0.00000000E+00  0.00000000E+00  0.00000000E+00
  0.00000000E+00  0.00000000E+00  0.00000000E+00
  0.00000000E+00  0.00000000E+00  0.00000000E+00
  0.00000000E+00  0.00000000E+00  0.00000000E+00
  0.00000000E+00  0.00000000E+00  0.00000000E+00
  0.00000000E+00  0.00000000E+00  0.00000000E+00
  0.00000000E+00  0.00000000E+00  0.00000000E+00
  0.00000000E+00  0.00000000E+00  0.00000000E+00
  0.00000000E+00  0.00000000E+00  0.00000000E+00
  0.00000000E+00  0.00000000E+00  0.00000000E+00
  0.00000000E+00  0.00000000E+00  0.00000000E+00
  0.00000000E+00  0.00000000E+00  0.00000000E+00
  0.00000000E+00  0.00000000E+00  0.00000000E+00
  0.00000000E+00  0.00000000E+00  0.00000000E+00
  0.00000000E+00  0.00000000E+00  0.00000000E+00
  0.00000000E+00  0.00000000E+00  0.00000000E+00
  0.00000000E+00  0.00000000E+00  0.00000000E+00
  0.00000000E+00  0.00000000E+00  0.00000000E+00
  0.00000000E+00  0.00000000E+00  0.00000000E+00
  0.00000000E+00  0.00000000E+00  0.00000000E+00
  0.00000000E+00  0.00000000E+00  0.00000000E+00
  0.00000000E+00  0.00000000E+00  0.00000000E+00
  0.00000000E+00  0.00000000E+00  0.00000000E+00
  0.00000000E+00  0.00000000E+00  0.00000000E+00
