Sr1 Mn10 O20                            
   1.00000000000000     
    13.3272953975616506    0.0000000000000000   -0.7354201269103330
     0.0000000000000000    3.1207513542319898    0.0000000000000000
    -0.0890341417079197    0.0000000000000000    9.8539134628547771
   Sr   Ir   O 
     1    10    20
Direct
  0.7512846335236764  0.5000000000000000  0.1599449488411304
 -0.0167051412707475  0.5000000000000000  0.0046403472591002
  0.5107378176121834  0.0000000000000000 -0.0048082781289099
  0.0016137421849448  0.0000000000000000  0.2574885245310882
  0.5140990652691719  0.5000000000000000  0.2686861745313485
 -0.0126355357577377  0.0000000000000000  0.7338086431601636
  0.5009835406358584  0.5000000000000000  0.7361627949718897
  0.3463382541219822  0.0000000000000000  0.4794233003180482
  0.8376807015701024  0.5000000000000000  0.4762889267081701
  0.6650557010343918  0.0000000000000000  0.5279960013357363
  0.1520332938568168  0.5000000000000000  0.5167405306294997
  0.5956081299544402  0.0000000000000000  0.1805861971028090
  0.0752371733777992  0.5000000000000000  0.1784297209442561
  0.4272388646510408  0.0000000000000000  0.8166925620680567
  0.9138369200135663  0.5000000000000000  0.8162641817612677
  0.0882900186223070  0.0000000000000000  0.4209639181075178
  0.5984175323704229  0.5000000000000000  0.4372090129607711
  0.9051059162056589  0.0000000000000000  0.5634714386698919
  0.4112700856085607  0.5000000000000000  0.5731553976487599
  0.7640668089542235  0.0000000000000000  0.3686078567097922
  0.2677117353551564  0.5000000000000000  0.3938907556681590
  0.2308807099055657  0.0000000000000000  0.6021999055211521
  0.7379032251078570  0.5000000000000000  0.6246429580700914
  0.4367760924016963  0.0000000000000000  0.3300774842936182
  0.9218771328320388  0.5000000000000000  0.3190020124071524
  0.5742674137648055  0.0000000000000000  0.6706197414876026
  0.0623343464276711  0.5000000000000000  0.6662052162630507
  0.8971722466191520  0.0000000000000000  0.0855761147963898
  0.4474873031249855  0.5000000000000000  0.0834113756546346
  0.0528359213221638  0.0000000000000000  0.9224456427518953
  0.5877963506002468  0.5000000000000000  0.9143765929558701
 
  0.00000000E+00  0.00000000E+00  0.00000000E+00
  0.00000000E+00  0.00000000E+00  0.00000000E+00
  0.00000000E+00  0.00000000E+00  0.00000000E+00
  0.00000000E+00  0.00000000E+00  0.00000000E+00
  0.00000000E+00  0.00000000E+00  0.00000000E+00
  0.00000000E+00  0.00000000E+00  0.00000000E+00
  0.00000000E+00  0.00000000E+00  0.00000000E+00
  0.00000000E+00  0.00000000E+00  0.00000000E+00
  0.00000000E+00  0.00000000E+00  0.00000000E+00
  0.00000000E+00  0.00000000E+00  0.00000000E+00
  0.00000000E+00  0.00000000E+00  0.00000000E+00
  0.00000000E+00  0.00000000E+00  0.00000000E+00
  0.00000000E+00  0.00000000E+00  0.00000000E+00
  0.00000000E+00  0.00000000E+00  0.00000000E+00
  0.00000000E+00  0.00000000E+00  0.00000000E+00
  0.00000000E+00  0.00000000E+00  0.00000000E+00
  0.00000000E+00  0.00000000E+00  0.00000000E+00
  0.00000000E+00  0.00000000E+00  0.00000000E+00
  0.00000000E+00  0.00000000E+00  0.00000000E+00
  0.00000000E+00  0.00000000E+00  0.00000000E+00
  0.00000000E+00  0.00000000E+00  0.00000000E+00
  0.00000000E+00  0.00000000E+00  0.00000000E+00
  0.00000000E+00  0.00000000E+00  0.00000000E+00
  0.00000000E+00  0.00000000E+00  0.00000000E+00
  0.00000000E+00  0.00000000E+00  0.00000000E+00
  0.00000000E+00  0.00000000E+00  0.00000000E+00
  0.00000000E+00  0.00000000E+00  0.00000000E+00
  0.00000000E+00  0.00000000E+00  0.00000000E+00
  0.00000000E+00  0.00000000E+00  0.00000000E+00
  0.00000000E+00  0.00000000E+00  0.00000000E+00
  0.00000000E+00  0.00000000E+00  0.00000000E+00
