slab                                    
   1.00000000000000     
     5.2328302903383905    0.0662693195618559   -0.0000050909769005
     0.0690036568998856    5.3409503143068795   -0.0000013941433830
     0.0000168374585909    0.0000321146909286   15.4999070984812608
   Sr   Ir   O 
     4     8    16
Direct
  0.4742006605090481  0.0278278443388302  0.1249997300960928
  0.5257925863802839  0.9721703250241376  0.3750007924310381
  0.4742065478693576  0.0278298515663451  0.6250003399318018
  0.5257973349119283  0.9721740001288595  0.8750004363141173
  0.9999999820752379  0.0000012039103225  0.2500004925643964
  0.0000015831613212  0.9999998071272032  0.9999995200031790
  0.4999995703991758  0.4999998771963661  0.2499997616820693
  0.5000007918405700  0.4999966365435640  0.9999998317028300
  0.9999997804176957  0.0000010476864176  0.7500000734402690
  0.0000002420962133  0.0000013971063026  0.4999997594421188
  0.4999996544413250  0.5000018450581578  0.7499998468055935
  0.4999997846670112  0.5000018925821621  0.5000001023946297
  0.2908240393104862  0.2104998798338542  0.4830577342500106
  0.7773759241999727  0.2764009564710364  0.2490669032954003
  0.7773846672824547  0.2764045452105179  0.0009371512945009
  0.7091679527291959  0.7895077207990653  0.0169447217713312
  0.2226258968209152  0.7235998207046990  0.2509368886745236
  0.7091719458246004  0.7895013895869951  0.2330626281547694
  0.2226207563944911  0.7235981257827930  0.4990684084213939
  0.2908256819634190  0.2104973550317055  0.2669380432219910
  0.2908468262360770  0.2104776629195229  0.9830648649450566
  0.7773718973098980  0.2763931456960407  0.7490731471101526
  0.7773789625658978  0.2764022296107385  0.5009325409008696
  0.7091651082011126  0.7895085595390299  0.5169373706050635
  0.2226308107235013  0.7236114544280241  0.7509260245195790
  0.7091754569528916  0.7895004066174849  0.7330562876408848
  0.2226189499034774  0.7235895684206426  0.9990565594135106
  0.2908167248124371  0.2105014650791617  0.7669400469728345
 
  0.00000000E+00  0.00000000E+00  0.00000000E+00
  0.00000000E+00  0.00000000E+00  0.00000000E+00
  0.00000000E+00  0.00000000E+00  0.00000000E+00
  0.00000000E+00  0.00000000E+00  0.00000000E+00
  0.00000000E+00  0.00000000E+00  0.00000000E+00
  0.00000000E+00  0.00000000E+00  0.00000000E+00
  0.00000000E+00  0.00000000E+00  0.00000000E+00
  0.00000000E+00  0.00000000E+00  0.00000000E+00
  0.00000000E+00  0.00000000E+00  0.00000000E+00
  0.00000000E+00  0.00000000E+00  0.00000000E+00
  0.00000000E+00  0.00000000E+00  0.00000000E+00
  0.00000000E+00  0.00000000E+00  0.00000000E+00
  0.00000000E+00  0.00000000E+00  0.00000000E+00
  0.00000000E+00  0.00000000E+00  0.00000000E+00
  0.00000000E+00  0.00000000E+00  0.00000000E+00
  0.00000000E+00  0.00000000E+00  0.00000000E+00
  0.00000000E+00  0.00000000E+00  0.00000000E+00
  0.00000000E+00  0.00000000E+00  0.00000000E+00
  0.00000000E+00  0.00000000E+00  0.00000000E+00
  0.00000000E+00  0.00000000E+00  0.00000000E+00
  0.00000000E+00  0.00000000E+00  0.00000000E+00
  0.00000000E+00  0.00000000E+00  0.00000000E+00
  0.00000000E+00  0.00000000E+00  0.00000000E+00
  0.00000000E+00  0.00000000E+00  0.00000000E+00
  0.00000000E+00  0.00000000E+00  0.00000000E+00
  0.00000000E+00  0.00000000E+00  0.00000000E+00
  0.00000000E+00  0.00000000E+00  0.00000000E+00
  0.00000000E+00  0.00000000E+00  0.00000000E+00
