slab                                    
   1.00000000000000     
     5.2328302903383905    0.0662693195618559   -0.0000050909769005
     0.0690036568998856    5.3409503143068795   -0.0000013941433830
     0.0000168374585909    0.0000321146909286   15.4999070984812608
   Sr   Ir   O 
     4     8    16
Direct
  0.4742006605090483  0.0278278443388272  0.1249997300960903
  0.5257925863802853  0.9721703250241363  0.3750007924310411
  0.4742065478693569  0.0278298515663483  0.6250003399318015
  0.5257973349119275  0.9721740001288599  0.8750004363141153
 -0.0000000179247595  0.0000012039103201  0.2500004925643957
  0.0000015831613211 -0.0000001928727949 -0.0000004799968202
  0.4999995703991730  0.4999998771963658  0.2499997616820683
  0.5000007918405698  0.4999966365435674 -0.0000001682971711
 -0.0000002195823077  0.0000010476864181  0.7500000734402678
  0.0000002420962157  0.0000013971063033  0.4999997594421169
  0.4999996544413240  0.5000018450581610  0.7499998468055955
  0.4999997846670118  0.5000018925821598  0.5000001023946308
  0.2908240393104870  0.2104998798338533  0.4830577342500106
  0.7773759241999745  0.2764009564710374  0.2490669032953978
  0.7773846672824524  0.2764045452105203  0.0009371512945036
  0.7091679527291943  0.7895077207990651  0.0169447217713301
  0.2226258968209164  0.7235998207047021  0.2509368886745235
  0.7091719458245985  0.7895013895869959  0.2330626281547698
  0.2226207563944927  0.7235981257827957  0.4990684084213952
  0.2908256819634195  0.2104973550317067  0.2669380432219907
  0.2908468262360789  0.2104776629195245  0.9830648649450594
  0.7773718973098959  0.2763931456960403  0.7490731471101533
  0.7773789625658983  0.2764022296107356  0.5009325409008687
  0.7091651082011132  0.7895085595390303  0.5169373706050627
  0.2226308107234999  0.7236114544280242  0.7509260245195785
  0.7091754569528912  0.7895004066174822  0.7330562876408866
  0.2226189499034781  0.7235895684206446  0.9990565594135122
  0.2908167248124379  0.2105014650791600  0.7669400469728338
 
  0.00000000E+00  0.00000000E+00  0.00000000E+00
  0.00000000E+00  0.00000000E+00  0.00000000E+00
  0.00000000E+00  0.00000000E+00  0.00000000E+00
  0.00000000E+00  0.00000000E+00  0.00000000E+00
  0.00000000E+00  0.00000000E+00  0.00000000E+00
  0.00000000E+00  0.00000000E+00  0.00000000E+00
  0.00000000E+00  0.00000000E+00  0.00000000E+00
  0.00000000E+00  0.00000000E+00  0.00000000E+00
  0.00000000E+00  0.00000000E+00  0.00000000E+00
  0.00000000E+00  0.00000000E+00  0.00000000E+00
  0.00000000E+00  0.00000000E+00  0.00000000E+00
  0.00000000E+00  0.00000000E+00  0.00000000E+00
  0.00000000E+00  0.00000000E+00  0.00000000E+00
  0.00000000E+00  0.00000000E+00  0.00000000E+00
  0.00000000E+00  0.00000000E+00  0.00000000E+00
  0.00000000E+00  0.00000000E+00  0.00000000E+00
  0.00000000E+00  0.00000000E+00  0.00000000E+00
  0.00000000E+00  0.00000000E+00  0.00000000E+00
  0.00000000E+00  0.00000000E+00  0.00000000E+00
  0.00000000E+00  0.00000000E+00  0.00000000E+00
  0.00000000E+00  0.00000000E+00  0.00000000E+00
  0.00000000E+00  0.00000000E+00  0.00000000E+00
  0.00000000E+00  0.00000000E+00  0.00000000E+00
  0.00000000E+00  0.00000000E+00  0.00000000E+00
  0.00000000E+00  0.00000000E+00  0.00000000E+00
  0.00000000E+00  0.00000000E+00  0.00000000E+00
  0.00000000E+00  0.00000000E+00  0.00000000E+00
  0.00000000E+00  0.00000000E+00  0.00000000E+00
