Ba4 Mn10 O20 F4                         
   1.00000000000000     
    12.6082718340482227    0.0000000000000000   -0.3782276229704324
     0.0000000000000000    3.1837344254234248    0.0000000000000000
     0.2337041560061110    0.0000000000000000   10.1062684719548201
   Sr   Ir   O 
     4    10    20
Direct
  0.2656407623567416 -0.0000000000000000  0.1904414217019764
  0.7656407623567415  0.5000000000000000  0.1904414217019764
  0.7343592376432585  0.0000000000000000  0.8095585782980232
  0.2343592376432585  0.5000000000000000  0.8095585782980232
 -0.0000000000000000  0.5000000000000000  0.0000000000000000
  0.5000000000000000  0.0000000000000000  0.0000000000000000
  0.0196523488557266 -0.0000000000000000  0.2568475493082964
  0.5196523488557262  0.5000000000000000  0.2568475493082964
 -0.0196523488557267  0.0000000000000000  0.7431524506917032
  0.4803476511442733  0.5000000000000000  0.7431524506917032
  0.3465345420049607  0.0000000000000000  0.4793113564609343
  0.8465345420049608  0.5000000000000000  0.4793113564609343
  0.6534654579950392  0.0000000000000000  0.5206886435390654
  0.1534654579950394  0.5000000000000000  0.5206886435390654
  0.6014790592776621 -0.0000000000000000  0.1641752870332547
  0.1014790592776621  0.5000000000000000  0.1641752870332547
  0.3985209407223378  0.0000000000000000  0.8358247129667455
  0.8985209407223379  0.5000000000000000  0.8358247129667455
  0.0974412346545218 -0.0000000000000000  0.4251549541705533
  0.5974412346545217  0.5000000000000000  0.4251549541705533
  0.9025587653454783 -0.0000000000000000  0.5748450458294470
  0.4025587653454785  0.5000000000000000  0.5748450458294470
  0.7733504947763252 -0.0000000000000000  0.3782790212568731
  0.2733504947763252  0.5000000000000000  0.3782790212568731
  0.2266495052236750 -0.0000000000000000  0.6217209787431265
  0.7266495052236748  0.5000000000000000  0.6217209787431265
  0.4363276513180431 -0.0000000000000000  0.3191569915048880
  0.9363276513180430  0.5000000000000000  0.3191569915048880
  0.5636723486819570 -0.0000000000000000  0.6808430084951121
  0.0636723486819568  0.5000000000000000  0.6808430084951121
  0.9170030248647623 -0.0000000000000000  0.0855241644016012
  0.4170030248647620  0.5000000000000000  0.0855241644016012
  0.0829969751352380  0.0000000000000000  0.9144758355983987
  0.5829969751352377  0.5000000000000000  0.9144758355983987
 
  0.00000000E+00  0.00000000E+00  0.00000000E+00
  0.00000000E+00  0.00000000E+00  0.00000000E+00
  0.00000000E+00  0.00000000E+00  0.00000000E+00
  0.00000000E+00  0.00000000E+00  0.00000000E+00
  0.00000000E+00  0.00000000E+00  0.00000000E+00
  0.00000000E+00  0.00000000E+00  0.00000000E+00
  0.00000000E+00  0.00000000E+00  0.00000000E+00
  0.00000000E+00  0.00000000E+00  0.00000000E+00
  0.00000000E+00  0.00000000E+00  0.00000000E+00
  0.00000000E+00  0.00000000E+00  0.00000000E+00
  0.00000000E+00  0.00000000E+00  0.00000000E+00
  0.00000000E+00  0.00000000E+00  0.00000000E+00
  0.00000000E+00  0.00000000E+00  0.00000000E+00
  0.00000000E+00  0.00000000E+00  0.00000000E+00
  0.00000000E+00  0.00000000E+00  0.00000000E+00
  0.00000000E+00  0.00000000E+00  0.00000000E+00
  0.00000000E+00  0.00000000E+00  0.00000000E+00
  0.00000000E+00  0.00000000E+00  0.00000000E+00
  0.00000000E+00  0.00000000E+00  0.00000000E+00
  0.00000000E+00  0.00000000E+00  0.00000000E+00
  0.00000000E+00  0.00000000E+00  0.00000000E+00
  0.00000000E+00  0.00000000E+00  0.00000000E+00
  0.00000000E+00  0.00000000E+00  0.00000000E+00
  0.00000000E+00  0.00000000E+00  0.00000000E+00
  0.00000000E+00  0.00000000E+00  0.00000000E+00
  0.00000000E+00  0.00000000E+00  0.00000000E+00
  0.00000000E+00  0.00000000E+00  0.00000000E+00
  0.00000000E+00  0.00000000E+00  0.00000000E+00
  0.00000000E+00  0.00000000E+00  0.00000000E+00
  0.00000000E+00  0.00000000E+00  0.00000000E+00
  0.00000000E+00  0.00000000E+00  0.00000000E+00
  0.00000000E+00  0.00000000E+00  0.00000000E+00
  0.00000000E+00  0.00000000E+00  0.00000000E+00
  0.00000000E+00  0.00000000E+00  0.00000000E+00
