Ba4 Mn10 O20 F4                         
   1.00000000000000     
    13.0639247764179860    0.0000000000000000   -0.5866875492195794
     0.0000000000000000    3.1459146048663666    0.0000000000000000
     0.0076463622006266    0.0000000000000000    9.6086626938450443
   Sr   Ir   O 
     2    10    20
Direct
  0.7581194689098325  0.5000000000000000  0.1527802859172454
  0.2418805310901675  0.5000000000000000  0.8472197140827546
  0.0000000000000000  0.5000000000000000  0.0000000000000000
  0.5000000000000000  0.0000000000000000  0.0000000000000000
  0.0148791504852710  0.0000000000000000  0.2564300708826082
  0.5089114958315193  0.5000000000000000  0.2541691326437245
  0.9851208495147290  0.0000000000000000  0.7435699291173918
  0.4910885041684807  0.5000000000000000  0.7458308673562755
  0.3430137498190717  0.0000000000000000  0.4760870052622295
  0.8412589958926588  0.5000000000000000  0.4772762700881188
  0.6569862501809283  0.0000000000000000  0.5239129947377776
  0.1587410041073412  0.5000000000000000  0.5227237299118812
  0.5980479631172102  0.0000000000000000  0.1733722596257792
  0.0936121763681470  0.5000000000000000  0.1760634161294803
  0.4019520368827898  0.0000000000000000  0.8266277403742208
  0.9063878236318530  0.5000000000000000  0.8239365838705197
  0.0972400587885502  0.0000000000000000  0.4263030094126421
  0.5957620412430913  0.5000000000000000  0.4239410409275450
  0.9027599412114498  0.0000000000000000  0.5736969905873579
  0.4042379587569087  0.5000000000000000  0.5760589590724550
  0.7674201543506740  0.0000000000000000  0.3686050677268042
  0.2694926483775504  0.5000000000000000  0.3803339616045633
  0.2325798456493260  0.0000000000000000  0.6313949322731958
  0.7305073516224496  0.5000000000000000  0.6196660383954367
  0.4331673207294386  0.0000000000000000  0.3211520724452228
  0.9313027346487885  0.5000000000000000  0.3163759175445904
  0.5668326792705614  0.0000000000000000  0.6788479275547772
  0.0686972653512115  0.5000000000000000  0.6836240824554096
  0.9123464281550113  0.0000000000000000  0.0768027238882922
  0.4151634863627436  0.5000000000000000  0.0715484168142879
  0.0876535718449887  0.0000000000000000  0.9231972761117078
  0.5848365136372564  0.5000000000000000  0.9284515831857121
 
  0.00000000E+00  0.00000000E+00  0.00000000E+00
  0.00000000E+00  0.00000000E+00  0.00000000E+00
  0.00000000E+00  0.00000000E+00  0.00000000E+00
  0.00000000E+00  0.00000000E+00  0.00000000E+00
  0.00000000E+00  0.00000000E+00  0.00000000E+00
  0.00000000E+00  0.00000000E+00  0.00000000E+00
  0.00000000E+00  0.00000000E+00  0.00000000E+00
  0.00000000E+00  0.00000000E+00  0.00000000E+00
  0.00000000E+00  0.00000000E+00  0.00000000E+00
  0.00000000E+00  0.00000000E+00  0.00000000E+00
  0.00000000E+00  0.00000000E+00  0.00000000E+00
  0.00000000E+00  0.00000000E+00  0.00000000E+00
  0.00000000E+00  0.00000000E+00  0.00000000E+00
  0.00000000E+00  0.00000000E+00  0.00000000E+00
  0.00000000E+00  0.00000000E+00  0.00000000E+00
  0.00000000E+00  0.00000000E+00  0.00000000E+00
  0.00000000E+00  0.00000000E+00  0.00000000E+00
  0.00000000E+00  0.00000000E+00  0.00000000E+00
  0.00000000E+00  0.00000000E+00  0.00000000E+00
  0.00000000E+00  0.00000000E+00  0.00000000E+00
  0.00000000E+00  0.00000000E+00  0.00000000E+00
  0.00000000E+00  0.00000000E+00  0.00000000E+00
  0.00000000E+00  0.00000000E+00  0.00000000E+00
  0.00000000E+00  0.00000000E+00  0.00000000E+00
  0.00000000E+00  0.00000000E+00  0.00000000E+00
  0.00000000E+00  0.00000000E+00  0.00000000E+00
  0.00000000E+00  0.00000000E+00  0.00000000E+00
  0.00000000E+00  0.00000000E+00  0.00000000E+00
  0.00000000E+00  0.00000000E+00  0.00000000E+00
  0.00000000E+00  0.00000000E+00  0.00000000E+00
  0.00000000E+00  0.00000000E+00  0.00000000E+00
  0.00000000E+00  0.00000000E+00  0.00000000E+00
