slab                                    
   1.00000000000000     
     5.2120608563414770    0.0001788391249228    0.0000631598057757
     0.0001802234490398    5.4079649987626306   -0.0161664969797241
     0.0003046721142897   -0.0459897268525286   15.5839663695308808
   Sr   Ir   O 
     4     8    16
Direct
  0.4925784953689752  0.0402758059905904  0.1166845058114711
  0.5104494126879177  0.9588039532657480  0.3839089427415600
  0.0096599350547878  0.5421001266877963  0.1162503846572163
 -0.0074735881511138  0.4597491047155977  0.3833310305519365
  0.0000281853599027  0.0000194202343084  0.2500067572711763
  0.0055965109123746  0.0010606620278580 -0.0054035129105399
  0.4999953817117358  0.4999763526426764  0.2500039068124396
  0.4944068674717114  0.5010689392240937 -0.0054033989123426
 -0.0000169091998399 -0.0000188388219143  0.7500011341483990
 -0.0057177789492009 -0.0011156577950317  0.5054175231213919
  0.4999844913172287  0.4999893605288092  0.7500028324541934
  0.5036087923753063  0.4991673495662290  0.5049212297012693
  0.2736544189521001  0.2247128195969805  0.4905659862334774
  0.7876233457266220  0.2840574812810081  0.2183689044849147
  0.7746729866529513  0.2753601516312232  0.0096325335180783
  0.7253589603046927  0.7752254684647767  0.0091524727234502
  0.2132214529543806  0.7166590682418135  0.2817301203642659
  0.7131855218890640  0.7834431739712551  0.2185184924783759
  0.2248728713329696  0.7253052854125065  0.4913746751434858
  0.2874835627901763  0.2159759928020454  0.2818483430506526
  0.2711144164363894  0.2319018733053276  0.9827430888901861
  0.7499492849758791  0.2499752263894220  0.7500500444371472
  0.7689358412448363  0.2672580028143323  0.5164304702040092
  0.7284463267319570  0.7674743552227361  0.5177987410927396
  0.2499397486955740  0.7499513855621250  0.7499904765103921
  0.7499231096840047  0.7499827565239596  0.7500482961026789
  0.2285512862834356  0.7316664288898788  0.9820276368296550
  0.2499671873851771  0.2499739586238454  0.7499983904883206
 
  0.00000000E+00  0.00000000E+00  0.00000000E+00
  0.00000000E+00  0.00000000E+00  0.00000000E+00
  0.00000000E+00  0.00000000E+00  0.00000000E+00
  0.00000000E+00  0.00000000E+00  0.00000000E+00
  0.00000000E+00  0.00000000E+00  0.00000000E+00
  0.00000000E+00  0.00000000E+00  0.00000000E+00
  0.00000000E+00  0.00000000E+00  0.00000000E+00
  0.00000000E+00  0.00000000E+00  0.00000000E+00
  0.00000000E+00  0.00000000E+00  0.00000000E+00
  0.00000000E+00  0.00000000E+00  0.00000000E+00
  0.00000000E+00  0.00000000E+00  0.00000000E+00
  0.00000000E+00  0.00000000E+00  0.00000000E+00
  0.00000000E+00  0.00000000E+00  0.00000000E+00
  0.00000000E+00  0.00000000E+00  0.00000000E+00
  0.00000000E+00  0.00000000E+00  0.00000000E+00
  0.00000000E+00  0.00000000E+00  0.00000000E+00
  0.00000000E+00  0.00000000E+00  0.00000000E+00
  0.00000000E+00  0.00000000E+00  0.00000000E+00
  0.00000000E+00  0.00000000E+00  0.00000000E+00
  0.00000000E+00  0.00000000E+00  0.00000000E+00
  0.00000000E+00  0.00000000E+00  0.00000000E+00
  0.00000000E+00  0.00000000E+00  0.00000000E+00
  0.00000000E+00  0.00000000E+00  0.00000000E+00
  0.00000000E+00  0.00000000E+00  0.00000000E+00
  0.00000000E+00  0.00000000E+00  0.00000000E+00
  0.00000000E+00  0.00000000E+00  0.00000000E+00
  0.00000000E+00  0.00000000E+00  0.00000000E+00
  0.00000000E+00  0.00000000E+00  0.00000000E+00
