Ba4 Mn10 O20 F4                         
   1.00000000000000     
    13.1456694446994273    0.0000000000000000   -0.7986771403734573
     0.0000000000000000    3.1312809180003387    0.0000000000000000
    -0.1214795112369861    0.0000000000000000    9.9505204744581341
   Sr   Ir   O 
     2    10    20
Direct
  0.2500237104959558  0.0000000000000000  0.1810529939423736
  0.2499762895040443  0.5000000000000000  0.8189470060576266
  0.0192937256006594  0.5000000000000000 -0.0096434873939864
  0.4807062743993404  0.0000000000000000  0.0096434873939864
  0.0108238773380049  0.0000000000000000  0.2608179509051846
  0.5019115534780090  0.5000000000000000  0.2595720647163666
 -0.0019115534780087  0.0000000000000000  0.7404279352836338
  0.4891761226619950  0.5000000000000000  0.7391820490948158
  0.3419707641941641  0.0000000000000000  0.4778227564871260
  0.8479698883645593  0.5000000000000000  0.4797045654225538
  0.6520301116354407  0.0000000000000000  0.5202954345774466
  0.1580292358058358  0.5000000000000000  0.5221772435128740
  0.5740883782578926  0.0000000000000000  0.1793923215114700
  0.0969674254746154  0.5000000000000000  0.1807390383828016
  0.4030325745253847  0.0000000000000000  0.8192609616171987
  0.9259116217421074  0.5000000000000000  0.8206076784885299
  0.0905994872729132  0.0000000000000000  0.4338714444875738
  0.5864124691833367  0.5000000000000000  0.4254628462873775
  0.9135875308166633  0.0000000000000000  0.5745371537126220
  0.4094005127270867  0.5000000000000000  0.5661285555124265
  0.7667820195679966  0.0000000000000000  0.3959240710292246
  0.2646158268650553  0.5000000000000000  0.3764942627658557
  0.2353841731349447  0.0000000000000000  0.6235057372341448
  0.7332179804320034  0.5000000000000000  0.6040759289707757
  0.4207923432038898  0.0000000000000000  0.3187664934266804
  0.9317602415341170  0.5000000000000000  0.3219301019376430
  0.5682397584658830  0.0000000000000000  0.6780698980623573
  0.0792076567961102  0.5000000000000000  0.6812335065733198
  0.9490529547902169  0.0000000000000000  0.0701989390483880
  0.3837316772214897  0.5000000000000000  0.0796838903563259
  0.1162683227785104  0.0000000000000000  0.9203161096436739
  0.5509470452097831  0.5000000000000000  0.9298010609516124
 
  0.00000000E+00  0.00000000E+00  0.00000000E+00
  0.00000000E+00  0.00000000E+00  0.00000000E+00
  0.00000000E+00  0.00000000E+00  0.00000000E+00
  0.00000000E+00  0.00000000E+00  0.00000000E+00
  0.00000000E+00  0.00000000E+00  0.00000000E+00
  0.00000000E+00  0.00000000E+00  0.00000000E+00
  0.00000000E+00  0.00000000E+00  0.00000000E+00
  0.00000000E+00  0.00000000E+00  0.00000000E+00
  0.00000000E+00  0.00000000E+00  0.00000000E+00
  0.00000000E+00  0.00000000E+00  0.00000000E+00
  0.00000000E+00  0.00000000E+00  0.00000000E+00
  0.00000000E+00  0.00000000E+00  0.00000000E+00
  0.00000000E+00  0.00000000E+00  0.00000000E+00
  0.00000000E+00  0.00000000E+00  0.00000000E+00
  0.00000000E+00  0.00000000E+00  0.00000000E+00
  0.00000000E+00  0.00000000E+00  0.00000000E+00
  0.00000000E+00  0.00000000E+00  0.00000000E+00
  0.00000000E+00  0.00000000E+00  0.00000000E+00
  0.00000000E+00  0.00000000E+00  0.00000000E+00
  0.00000000E+00  0.00000000E+00  0.00000000E+00
  0.00000000E+00  0.00000000E+00  0.00000000E+00
  0.00000000E+00  0.00000000E+00  0.00000000E+00
  0.00000000E+00  0.00000000E+00  0.00000000E+00
  0.00000000E+00  0.00000000E+00  0.00000000E+00
  0.00000000E+00  0.00000000E+00  0.00000000E+00
  0.00000000E+00  0.00000000E+00  0.00000000E+00
  0.00000000E+00  0.00000000E+00  0.00000000E+00
  0.00000000E+00  0.00000000E+00  0.00000000E+00
  0.00000000E+00  0.00000000E+00  0.00000000E+00
  0.00000000E+00  0.00000000E+00  0.00000000E+00
  0.00000000E+00  0.00000000E+00  0.00000000E+00
  0.00000000E+00  0.00000000E+00  0.00000000E+00
