Ba4 Mn10 O20 F4
1.0
13.916883 0.000000 -0.580857
0.000000 2.845900 0.000000
0.000000 0.000000 9.678000
Sr Ir O
2 10 20
direct
0.246600 0.000000 0.124200 Ba
0.253400 0.500000 0.875800 Ba
0.000000 0.500000 0.000000 Mn
0.500000 0.000000 0.000000 Mn
0.999780 0.000000 0.268200 Mn
0.499780 0.500000 0.268200 Mn
0.000220 0.000000 0.731800 Mn
0.500220 0.500000 0.731800 Mn
0.340100 0.000000 0.484100 Mn
0.840100 0.500000 0.484100 Mn
0.659900 0.000000 0.515900 Mn
0.159900 0.500000 0.515900 Mn
0.566900 0.000000 0.177300 O
0.066900 0.500000 0.177300 O
0.433100 0.000000 0.822700 O
0.933100 0.500000 0.822700 O
0.097600 0.000000 0.424400 O
0.597600 0.500000 0.424400 O
0.902400 0.000000 0.575600 O
0.402400 0.500000 0.575600 O
0.766300 0.000000 0.395800 O
0.266300 0.500000 0.395800 O
0.233700 0.000000 0.604200 O
0.733700 0.500000 0.604200 O
0.424800 0.000000 0.335400 O
0.924800 0.500000 0.335400 O
0.575200 0.000000 0.664600 O
0.075200 0.500000 0.664600 O
0.926300 0.000000 0.072100 O
0.426300 0.500000 0.072100 O
0.073700 0.000000 0.927900 O
0.573700 0.500000 0.927900 O
