Ba4 Mn10 O20 F4                         
   1.00000000000000     
    12.8224459472470116    0.0000000000000000   -0.5836683620251623
     0.0000000000000000    3.1515150590896606    0.0000000000000000
     0.0409384662999337    0.0000000000000000    9.8727095969361933
   Sr   Ir   O 
     3    10    20
Direct
  0.2582861163484935  0.0000000000000000  0.1802536009696567
  0.7403440900649585  0.0000000000000000  0.8444415151331555
  0.2391157774886068  0.5000000000000000  0.8152702233325044
  0.0228501697814423  0.5000000000000000  0.9883093876590792
  0.4973368173098152  0.0000000000000000  0.0086126136526730
  0.0076478194579224  0.0000000000000000  0.2485312564694979
  0.5142132902296908  0.5000000000000000  0.2656863212962222
  0.9749096166907592  0.0000000000000000  0.7401385800787779
  0.4866523369265394  0.5000000000000000  0.7480854065008842
  0.3403480256231859  0.0000000000000000  0.4830817013230231
  0.8411261437451856  0.5000000000000000  0.4666268102671793
  0.6594108936357870  0.0000000000000000  0.5267241441013155
  0.1463246882303437  0.5000000000000000  0.5184796111603944
  0.5893244050143736  0.0000000000000000  0.1797212831869928
  0.0986428095672878  0.5000000000000000  0.1740016883982278
  0.4013385263514451  0.0000000000000000  0.8294160862120563
  0.9047619808816805  0.5000000000000000  0.8332314017753717
  0.0869977277411635  0.0000000000000000  0.4215655817660107
  0.5956313841807770  0.5000000000000000  0.4339032967417324
  0.9091425852985751  0.0000000000000000  0.5549087928312417
  0.3998716497294552  0.5000000000000000  0.5812582399175312
  0.7634752348124536  0.0000000000000000  0.3774804810487993
  0.2658039373035805  0.5000000000000000  0.3789157528285045
  0.2208850165526641  0.0000000000000000  0.6202661390601847
  0.7364237412621364  0.5000000000000000  0.6316121205733793
  0.4319116377900087  0.0000000000000000  0.3289425866364013
  0.9232673148311363  0.5000000000000000  0.3037892773285122
  0.5722251239144072  0.0000000000000000  0.6908718929003044
  0.0583188668039014  0.5000000000000000  0.6775328780378089
  0.9364263708259344  0.0000000000000000  0.0548797066302740
  0.4088179177829332  0.5000000000000000  0.0867854383695885
  0.1392166107160477  0.0000000000000000  0.9553920892410233
  0.5823513731072936  0.5000000000000000  0.9270840945716969
 
  0.00000000E+00  0.00000000E+00  0.00000000E+00
  0.00000000E+00  0.00000000E+00  0.00000000E+00
  0.00000000E+00  0.00000000E+00  0.00000000E+00
  0.00000000E+00  0.00000000E+00  0.00000000E+00
  0.00000000E+00  0.00000000E+00  0.00000000E+00
  0.00000000E+00  0.00000000E+00  0.00000000E+00
  0.00000000E+00  0.00000000E+00  0.00000000E+00
  0.00000000E+00  0.00000000E+00  0.00000000E+00
  0.00000000E+00  0.00000000E+00  0.00000000E+00
  0.00000000E+00  0.00000000E+00  0.00000000E+00
  0.00000000E+00  0.00000000E+00  0.00000000E+00
  0.00000000E+00  0.00000000E+00  0.00000000E+00
  0.00000000E+00  0.00000000E+00  0.00000000E+00
  0.00000000E+00  0.00000000E+00  0.00000000E+00
  0.00000000E+00  0.00000000E+00  0.00000000E+00
  0.00000000E+00  0.00000000E+00  0.00000000E+00
  0.00000000E+00  0.00000000E+00  0.00000000E+00
  0.00000000E+00  0.00000000E+00  0.00000000E+00
  0.00000000E+00  0.00000000E+00  0.00000000E+00
  0.00000000E+00  0.00000000E+00  0.00000000E+00
  0.00000000E+00  0.00000000E+00  0.00000000E+00
  0.00000000E+00  0.00000000E+00  0.00000000E+00
  0.00000000E+00  0.00000000E+00  0.00000000E+00
  0.00000000E+00  0.00000000E+00  0.00000000E+00
  0.00000000E+00  0.00000000E+00  0.00000000E+00
  0.00000000E+00  0.00000000E+00  0.00000000E+00
  0.00000000E+00  0.00000000E+00  0.00000000E+00
  0.00000000E+00  0.00000000E+00  0.00000000E+00
  0.00000000E+00  0.00000000E+00  0.00000000E+00
  0.00000000E+00  0.00000000E+00  0.00000000E+00
  0.00000000E+00  0.00000000E+00  0.00000000E+00
  0.00000000E+00  0.00000000E+00  0.00000000E+00
  0.00000000E+00  0.00000000E+00  0.00000000E+00
