Sr Ir2 O5                               
   1.00000000000000     
     5.4050572031987327   -0.0080112151871162   -0.1433549540931190
    -0.0117118703124962    5.1995141138750336    0.0086694310252085
    -0.3970782808797029    0.0024575697397934   14.7962653495349752
   Sr   Ir   O 
     4     8    16
Direct
  0.4616659004950776  0.0539814783705737  0.1160497580752278
  0.1196565306274877  0.4722681008030136  0.3757681499249372
  0.4395617124913969  0.9524195308299639  0.6157609970692661
  0.0961372409859180  0.5359020361955942  0.8843240551731881
  0.9488287223307523  0.0148561934648868  0.0051315895381450
  0.6062994903901426  0.5422175806631913  0.9967707781989859
  0.0052375467522836  0.9853158842685517  0.2532606216363362
  0.5698463506780129  0.5391173508056184  0.2477055815179696
  0.6430147597358697  0.4573371571863518  0.4985053855120540
  0.9310937352104176  0.9913747069024623  0.5032077666994041
  0.5513937310919630  0.4610575253981466  0.7498277019740200
  0.9905349726050687  0.0216252837836493  0.7542924711757308
  0.9746495242035493  0.6235975976952446  0.5198523354373279
  0.3791867611226181  0.8162225463045303  0.9747338518364330
  0.9778354489941137  0.9578896917496138  0.1275111950333851
  0.6240669468366349  0.5287169697433711  0.3741656609867476
  0.5776579188166977  0.5649144400378887  0.1210440246236928
  0.9692099743659881  0.9760874013310215  0.3789502870087560
  0.2963493554753143  0.7718309410497284  0.2586375107614529
  0.7808775904890624  0.2578935888310809  0.2394386674493063
  0.3817518443946071  0.2119164670785381  0.4769822055601125
  0.1611487611466345  0.3091347755764104  0.0233474377403340
  0.5718178458795791  0.4315680006881379  0.6227091641046343
  0.9609007442570885  0.0317568446856882  0.8802164193228137
  0.9622474872718243  0.0391767527031988  0.6273278146892736
  0.5921202433519213  0.4689985777070262  0.8756901503146111
  0.7581292753977422  0.7507304617114841  0.7436645710634622
  0.2780675846022120  0.2320921144350550  0.7551238475723494
 
  0.00000000E+00  0.00000000E+00  0.00000000E+00
  0.00000000E+00  0.00000000E+00  0.00000000E+00
  0.00000000E+00  0.00000000E+00  0.00000000E+00
  0.00000000E+00  0.00000000E+00  0.00000000E+00
  0.00000000E+00  0.00000000E+00  0.00000000E+00
  0.00000000E+00  0.00000000E+00  0.00000000E+00
  0.00000000E+00  0.00000000E+00  0.00000000E+00
  0.00000000E+00  0.00000000E+00  0.00000000E+00
  0.00000000E+00  0.00000000E+00  0.00000000E+00
  0.00000000E+00  0.00000000E+00  0.00000000E+00
  0.00000000E+00  0.00000000E+00  0.00000000E+00
  0.00000000E+00  0.00000000E+00  0.00000000E+00
  0.00000000E+00  0.00000000E+00  0.00000000E+00
  0.00000000E+00  0.00000000E+00  0.00000000E+00
  0.00000000E+00  0.00000000E+00  0.00000000E+00
  0.00000000E+00  0.00000000E+00  0.00000000E+00
  0.00000000E+00  0.00000000E+00  0.00000000E+00
  0.00000000E+00  0.00000000E+00  0.00000000E+00
  0.00000000E+00  0.00000000E+00  0.00000000E+00
  0.00000000E+00  0.00000000E+00  0.00000000E+00
  0.00000000E+00  0.00000000E+00  0.00000000E+00
  0.00000000E+00  0.00000000E+00  0.00000000E+00
  0.00000000E+00  0.00000000E+00  0.00000000E+00
  0.00000000E+00  0.00000000E+00  0.00000000E+00
  0.00000000E+00  0.00000000E+00  0.00000000E+00
  0.00000000E+00  0.00000000E+00  0.00000000E+00
  0.00000000E+00  0.00000000E+00  0.00000000E+00
  0.00000000E+00  0.00000000E+00  0.00000000E+00
