Ba4 Mn10 O20 F4                         
   1.00000000000000     
    13.0639247764179860    0.0000000000000000   -0.5866875492195794
     0.0000000000000000    3.1459146048663666    0.0000000000000000
     0.0076463622006266    0.0000000000000000    9.6086626938450443
   Sr   Ir   O 
     2    10    20
Direct
  0.7581194689098291  0.5000000000000000  0.1527802859172433
  0.2418805310901706  0.5000000000000000  0.8472197140827566
  0.0000000000000000  0.5000000000000000 -0.0000000000000000
  0.5000000000000000 -0.0000000000000000 -0.0000000000000000
  0.0148791504852677 -0.0000000000000000  0.2564300708826071
  0.5089114958315175  0.5000000000000000  0.2541691326437240
 -0.0148791504852678 -0.0000000000000000  0.7435699291173932
  0.4910885041684826  0.5000000000000000  0.7458308673562765
  0.3430137498190727 -0.0000000000000000  0.4760870052622260
  0.8412589958926590  0.5000000000000000  0.4772762700881156
  0.6569862501809272  0.0000000000000000  0.5239129947377742
  0.1587410041073414  0.5000000000000000  0.5227237299118846
  0.5980479631172093 -0.0000000000000000  0.1733722596257761
  0.0936121763681493  0.5000000000000000  0.1760634161294796
  0.4019520368827912 -0.0000000000000000  0.8266277403742236
  0.9063878236318509  0.5000000000000000  0.8239365838705203
  0.0972400587885527  0.0000000000000000  0.4263030094126404
  0.5957620412430908  0.5000000000000000  0.4239410409275481
  0.9027599412114471 -0.0000000000000000  0.5736969905873596
  0.4042379587569089  0.5000000000000000  0.5760589590724517
  0.7674201543506729 -0.0000000000000000  0.3686050677268075
  0.2694926483775533  0.5000000000000000  0.3803339616045654
  0.2325798456493274 -0.0000000000000000  0.6313949322731924
  0.7305073516224464  0.5000000000000000  0.6196660383954343
  0.4331673207294386  0.0000000000000000  0.3211520724452258
  0.9313027346487862  0.5000000000000000  0.3163759175445884
  0.5668326792705618 -0.0000000000000000  0.6788479275547742
  0.0686972653512136  0.5000000000000000  0.6836240824554117
  0.9123464281550094 -0.0000000000000000  0.0768027238882952
  0.4151634863627436  0.5000000000000000  0.0715484168142865
  0.0876535718449902 -0.0000000000000000  0.9231972761117047
  0.5848365136372565  0.5000000000000000  0.9284515831857134
 
  0.00000000E+00  0.00000000E+00  0.00000000E+00
  0.00000000E+00  0.00000000E+00  0.00000000E+00
  0.00000000E+00  0.00000000E+00  0.00000000E+00
  0.00000000E+00  0.00000000E+00  0.00000000E+00
  0.00000000E+00  0.00000000E+00  0.00000000E+00
  0.00000000E+00  0.00000000E+00  0.00000000E+00
  0.00000000E+00  0.00000000E+00  0.00000000E+00
  0.00000000E+00  0.00000000E+00  0.00000000E+00
  0.00000000E+00  0.00000000E+00  0.00000000E+00
  0.00000000E+00  0.00000000E+00  0.00000000E+00
  0.00000000E+00  0.00000000E+00  0.00000000E+00
  0.00000000E+00  0.00000000E+00  0.00000000E+00
  0.00000000E+00  0.00000000E+00  0.00000000E+00
  0.00000000E+00  0.00000000E+00  0.00000000E+00
  0.00000000E+00  0.00000000E+00  0.00000000E+00
  0.00000000E+00  0.00000000E+00  0.00000000E+00
  0.00000000E+00  0.00000000E+00  0.00000000E+00
  0.00000000E+00  0.00000000E+00  0.00000000E+00
  0.00000000E+00  0.00000000E+00  0.00000000E+00
  0.00000000E+00  0.00000000E+00  0.00000000E+00
  0.00000000E+00  0.00000000E+00  0.00000000E+00
  0.00000000E+00  0.00000000E+00  0.00000000E+00
  0.00000000E+00  0.00000000E+00  0.00000000E+00
  0.00000000E+00  0.00000000E+00  0.00000000E+00
  0.00000000E+00  0.00000000E+00  0.00000000E+00
  0.00000000E+00  0.00000000E+00  0.00000000E+00
  0.00000000E+00  0.00000000E+00  0.00000000E+00
  0.00000000E+00  0.00000000E+00  0.00000000E+00
  0.00000000E+00  0.00000000E+00  0.00000000E+00
  0.00000000E+00  0.00000000E+00  0.00000000E+00
  0.00000000E+00  0.00000000E+00  0.00000000E+00
  0.00000000E+00  0.00000000E+00  0.00000000E+00
