Ba4 Mn10 O20 F4                         
   1.00000000000000     
    12.6082718340482227    0.0000000000000000   -0.3782276229704324
     0.0000000000000000    3.1837344254234248    0.0000000000000000
     0.2337041560061110    0.0000000000000000   10.1062684719548201
   Sr   Ir   O 
     4    10    20
Direct
  0.2656407623567389  0.0000000000000000  0.1904414217019763
  0.7656407623567389  0.5000000000000000  0.1904414217019763
  0.7343592376432611  0.0000000000000000  0.8095585782980237
  0.2343592376432611  0.5000000000000000  0.8095585782980237
  0.0000000000000000  0.5000000000000000  0.0000000000000000
  0.5000000000000000  0.0000000000000000  0.0000000000000000
  0.0196523488557290  0.0000000000000000  0.2568475493082971
  0.5196523488557290  0.5000000000000000  0.2568475493082971
  0.9803476511442710  0.0000000000000000  0.7431524506917029
  0.4803476511442710  0.5000000000000000  0.7431524506917029
  0.3465345420049601  0.0000000000000000  0.4793113564609328
  0.8465345420049601  0.5000000000000000  0.4793113564609328
  0.6534654579950399  0.0000000000000000  0.5206886435390672
  0.1534654579950399  0.5000000000000000  0.5206886435390672
  0.6014790592776649  0.0000000000000000  0.1641752870332525
  0.1014790592776649  0.5000000000000000  0.1641752870332525
  0.3985209407223351  0.0000000000000000  0.8358247129667475
  0.8985209407223351  0.5000000000000000  0.8358247129667475
  0.0974412346545250  0.0000000000000000  0.4251549541705515
  0.5974412346545250  0.5000000000000000  0.4251549541705515
  0.9025587653454750  0.0000000000000000  0.5748450458294485
  0.4025587653454750  0.5000000000000000  0.5748450458294485
  0.7733504947763237  0.0000000000000000  0.3782790212568727
  0.2733504947763237  0.5000000000000000  0.3782790212568727
  0.2266495052236763  0.0000000000000000  0.6217209787431273
  0.7266495052236763  0.5000000000000000  0.6217209787431273
  0.4363276513180452  0.0000000000000000  0.3191569915048902
  0.9363276513180452  0.5000000000000000  0.3191569915048902
  0.5636723486819548  0.0000000000000000  0.6808430084951098
  0.0636723486819548  0.5000000000000000  0.6808430084951098
  0.9170030248647620  0.0000000000000000  0.0855241644016047
  0.4170030248647620  0.5000000000000000  0.0855241644016047
  0.0829969751352380  0.0000000000000000  0.9144758355983953
  0.5829969751352380  0.5000000000000000  0.9144758355983953
 
  0.00000000E+00  0.00000000E+00  0.00000000E+00
  0.00000000E+00  0.00000000E+00  0.00000000E+00
  0.00000000E+00  0.00000000E+00  0.00000000E+00
  0.00000000E+00  0.00000000E+00  0.00000000E+00
  0.00000000E+00  0.00000000E+00  0.00000000E+00
  0.00000000E+00  0.00000000E+00  0.00000000E+00
  0.00000000E+00  0.00000000E+00  0.00000000E+00
  0.00000000E+00  0.00000000E+00  0.00000000E+00
  0.00000000E+00  0.00000000E+00  0.00000000E+00
  0.00000000E+00  0.00000000E+00  0.00000000E+00
  0.00000000E+00  0.00000000E+00  0.00000000E+00
  0.00000000E+00  0.00000000E+00  0.00000000E+00
  0.00000000E+00  0.00000000E+00  0.00000000E+00
  0.00000000E+00  0.00000000E+00  0.00000000E+00
  0.00000000E+00  0.00000000E+00  0.00000000E+00
  0.00000000E+00  0.00000000E+00  0.00000000E+00
  0.00000000E+00  0.00000000E+00  0.00000000E+00
  0.00000000E+00  0.00000000E+00  0.00000000E+00
  0.00000000E+00  0.00000000E+00  0.00000000E+00
  0.00000000E+00  0.00000000E+00  0.00000000E+00
  0.00000000E+00  0.00000000E+00  0.00000000E+00
  0.00000000E+00  0.00000000E+00  0.00000000E+00
  0.00000000E+00  0.00000000E+00  0.00000000E+00
  0.00000000E+00  0.00000000E+00  0.00000000E+00
  0.00000000E+00  0.00000000E+00  0.00000000E+00
  0.00000000E+00  0.00000000E+00  0.00000000E+00
  0.00000000E+00  0.00000000E+00  0.00000000E+00
  0.00000000E+00  0.00000000E+00  0.00000000E+00
  0.00000000E+00  0.00000000E+00  0.00000000E+00
  0.00000000E+00  0.00000000E+00  0.00000000E+00
  0.00000000E+00  0.00000000E+00  0.00000000E+00
  0.00000000E+00  0.00000000E+00  0.00000000E+00
  0.00000000E+00  0.00000000E+00  0.00000000E+00
  0.00000000E+00  0.00000000E+00  0.00000000E+00
