Sr Ir2 O5                               
   1.00000000000000     
     5.3139406628790793   -0.0234169388610553    0.0085673089701507
    -0.0261645767006843    5.7443731113266692    0.0275436234502424
     0.0216396003632024    0.0715031710151720   14.8229464235965622
   Sr   Ir   O 
     4     8    16
Direct
  0.5034615062298137 -0.0025258789904756  0.1192561772454775
  0.0107405558958338  0.4913678929659840  0.3821305197501668
  0.0074679052535608  0.4874681126116184  0.1146625956047433
  0.5007598192266772  0.0107861485113659  0.3862027518958682
  0.9900454872798738  0.9889102001544899  0.9883121591238266
  0.4860243587547494  0.5006777525309578  0.9869779624119606
  0.0127188124972806  0.0173863305375708  0.2498439287227475
  0.5140159806288627  0.4915823590085727  0.2500786298130842
  0.4916207505759385  0.5030588801133919  0.5125878757481960
 -0.0024597123597016  0.9887550464785163  0.5116900639454967
  0.5588278408440627  0.4387926217996645  0.7499715109489443
  0.0412068015286724  0.0640498333645890  0.7506704124910276
  0.2427781084786419  0.7448195497306846  0.4819261798985888
  0.2580714759508052  0.7500427242245867  0.0201065980283975
  0.9856087876223226  0.0432101290683008  0.1190066746126004
  0.5366953611853365  0.4557541617930774  0.3808318551047071
  0.5203045748223780  0.4439897144762719  0.1205780560644574
  0.9701846022212197  0.0395817009492434  0.3796153247644176
  0.3222514604791633  0.8016215818662383  0.2571461528799179
  0.8252235347413911  0.6978024239046043  0.2450101798226553
  0.2632388526939747  0.2369670886372409  0.5047666895798101
  0.3343801472675272  0.2030641947982639  0.9839608311973626
  0.5055392047044308  0.5620556721609306  0.6354274081827703
  0.9601516265796658  0.9843057103540400  0.8673995865245855
  0.9786596136021158  0.9727418232171018  0.6346233854675702
  0.4963541383295872  0.5696825868654227  0.8633927640083449
  0.9045621905422824  0.3726849580262590  0.7521436639212530
  0.3898542144235484  0.1433666808414785  0.7516800622410232
 
  0.00000000E+00  0.00000000E+00  0.00000000E+00
  0.00000000E+00  0.00000000E+00  0.00000000E+00
  0.00000000E+00  0.00000000E+00  0.00000000E+00
  0.00000000E+00  0.00000000E+00  0.00000000E+00
  0.00000000E+00  0.00000000E+00  0.00000000E+00
  0.00000000E+00  0.00000000E+00  0.00000000E+00
  0.00000000E+00  0.00000000E+00  0.00000000E+00
  0.00000000E+00  0.00000000E+00  0.00000000E+00
  0.00000000E+00  0.00000000E+00  0.00000000E+00
  0.00000000E+00  0.00000000E+00  0.00000000E+00
  0.00000000E+00  0.00000000E+00  0.00000000E+00
  0.00000000E+00  0.00000000E+00  0.00000000E+00
  0.00000000E+00  0.00000000E+00  0.00000000E+00
  0.00000000E+00  0.00000000E+00  0.00000000E+00
  0.00000000E+00  0.00000000E+00  0.00000000E+00
  0.00000000E+00  0.00000000E+00  0.00000000E+00
  0.00000000E+00  0.00000000E+00  0.00000000E+00
  0.00000000E+00  0.00000000E+00  0.00000000E+00
  0.00000000E+00  0.00000000E+00  0.00000000E+00
  0.00000000E+00  0.00000000E+00  0.00000000E+00
  0.00000000E+00  0.00000000E+00  0.00000000E+00
  0.00000000E+00  0.00000000E+00  0.00000000E+00
  0.00000000E+00  0.00000000E+00  0.00000000E+00
  0.00000000E+00  0.00000000E+00  0.00000000E+00
  0.00000000E+00  0.00000000E+00  0.00000000E+00
  0.00000000E+00  0.00000000E+00  0.00000000E+00
  0.00000000E+00  0.00000000E+00  0.00000000E+00
  0.00000000E+00  0.00000000E+00  0.00000000E+00
