Sr Ir2 O5                               
   1.00000000000000     
     5.3673461721503894    0.0019951880230626    0.0194881487445124
     0.0012063327878938    5.7878068016049307    0.0135319762403633
     0.0523125364203746    0.0353119638743456   14.9334095081244929
   Sr   Ir   O 
     4     8    16
Direct
  0.4985857641133491  0.0111642390017283  0.1130474658484134
  0.0039343709188823  0.4868331244888688  0.3882865350307075
  0.0027817577036479  0.4837834643334519  0.1117703960114764
  0.5013564600227545  0.0123726117859910  0.3869415263886668
 -0.0072641520664049 -0.0108535074965907 -0.0105166354417445
  0.4813520838444770  0.5032865832226313 -0.0136525331445387
  0.0102159315464281  0.0031161503320187  0.2513802717213343
  0.5202921594706049  0.5041330819764709  0.2483218299328464
  0.4878272308456401  0.5044002578729605  0.5134187917240611
  0.0013155936911077 -0.0098426404723754  0.5119013141106229
  0.5541725872916785  0.4377782298344961  0.7496894524504943
  0.0456965795315323  0.0628299889424304  0.7504096155930285
  0.2556546260186745  0.7496199860325204  0.4801206163138666
  0.2552868600550359  0.7524840412238738  0.0198030926234643
  0.9709090848626656  0.0302556302993488  0.1216028204699478
  0.5316593292807337  0.4570424179768043  0.3790439816617057
  0.5283389505036016  0.4555884394924350  0.1191024271371968
  0.9733396316542313  0.0325554910765891  0.3803335373547034
  0.3375412803049875  0.8130873057183581  0.2510548559758203
  0.8424535305379782  0.6847978491986185  0.2495549411215153
  0.2686005444623591  0.2371025012116393  0.5015029294075841
  0.2683328390960834  0.2331518769160421  0.9979413975871227
  0.5168245328228320  0.5479386718117566  0.6342801078319880
  0.9773306047554617  0.9839376266931370  0.8675425633919536
  0.9854207450684948  0.9790859029105055  0.6338514240276647
  0.5073142862258908  0.5474249506116464  0.8646611700157383
  0.8991973307317445  0.3662527063528970  0.7494019958399613
  0.3898174567055320  0.1426730186517533  0.7492041090143953
 
  0.00000000E+00  0.00000000E+00  0.00000000E+00
  0.00000000E+00  0.00000000E+00  0.00000000E+00
  0.00000000E+00  0.00000000E+00  0.00000000E+00
  0.00000000E+00  0.00000000E+00  0.00000000E+00
  0.00000000E+00  0.00000000E+00  0.00000000E+00
  0.00000000E+00  0.00000000E+00  0.00000000E+00
  0.00000000E+00  0.00000000E+00  0.00000000E+00
  0.00000000E+00  0.00000000E+00  0.00000000E+00
  0.00000000E+00  0.00000000E+00  0.00000000E+00
  0.00000000E+00  0.00000000E+00  0.00000000E+00
  0.00000000E+00  0.00000000E+00  0.00000000E+00
  0.00000000E+00  0.00000000E+00  0.00000000E+00
  0.00000000E+00  0.00000000E+00  0.00000000E+00
  0.00000000E+00  0.00000000E+00  0.00000000E+00
  0.00000000E+00  0.00000000E+00  0.00000000E+00
  0.00000000E+00  0.00000000E+00  0.00000000E+00
  0.00000000E+00  0.00000000E+00  0.00000000E+00
  0.00000000E+00  0.00000000E+00  0.00000000E+00
  0.00000000E+00  0.00000000E+00  0.00000000E+00
  0.00000000E+00  0.00000000E+00  0.00000000E+00
  0.00000000E+00  0.00000000E+00  0.00000000E+00
  0.00000000E+00  0.00000000E+00  0.00000000E+00
  0.00000000E+00  0.00000000E+00  0.00000000E+00
  0.00000000E+00  0.00000000E+00  0.00000000E+00
  0.00000000E+00  0.00000000E+00  0.00000000E+00
  0.00000000E+00  0.00000000E+00  0.00000000E+00
  0.00000000E+00  0.00000000E+00  0.00000000E+00
  0.00000000E+00  0.00000000E+00  0.00000000E+00
