Sr Ir2 O5
1.0
5.601662 0.000000 0.000000
0.000000 5.778295 0.000000
0.000000 0.000000 15.730288
Sr Ir O
4 8 16
direct
0.504108 0.019653 0.108430 
0.504108 0.019653 0.391570 
0.504108 0.980347 0.891570 
0.504108 0.980347 0.608430 
0.999026 0.000000 0.000000 
0.499026 0.500000 0.000000 
0.043349 0.928083 0.250000 
0.543349 0.571917 0.250000 
0.499026 0.500000 0.500000 
0.999026 0.000000 0.500000 
0.543349 0.428083 0.750000 
0.043349 0.071917 0.750000 
0.250391 0.752609 0.491945 
0.250391 0.752609 0.008055 
0.984082 0.048968 0.140213 
0.484082 0.451032 0.359787 
0.484082 0.451032 0.140213 
0.984082 0.048968 0.359787 
0.387284 0.871096 0.250000 
0.887284 0.628904 0.250000 
0.250391 0.247391 0.508055 
0.250391 0.247391 0.991945 
0.484082 0.548968 0.640213 
0.984082 0.951032 0.859787 
0.984082 0.951032 0.640213 
0.484082 0.548968 0.859787 
0.887284 0.371096 0.750000 
0.387284 0.128904 0.750000 
