slab                                    
   1.00000000000000     
     5.3407248930998428   -0.0012436677252075    0.0296506710754015
    -0.0012266289323678    5.3834540219921854   -0.0032615524686527
     0.0874787486264959   -0.0084507103331444   15.2677883263300380
   Sr   Ir   O 
     4     8    16
Direct
  0.5059701485799266  0.9960738624522349  0.1262538572626042
  0.9936982750524592  0.5002791380646059  0.3747186005360916
  0.4888720000418232  0.0006071441660254  0.6247916599382677
  0.0137991225358718  0.4998148420067707  0.8750356345627850
  0.0002630432021746  0.9998837102445819  0.2488639744178087
  0.0119394551852352  0.9952143372748310  0.9979016321997491
  0.4997801369751969  0.5001420551061884  0.2511389966860449
  0.5151316538421185  0.4942216595076090  0.0019322623618905
  0.0008259727728941  0.9999970652350356  0.7513759838728475
  0.9849985991281613  0.0057887354156350  0.4980664621505753
  0.5071991332531525  0.4999788338536675  0.7485053890460946
  0.4881227774906023  0.5048860306430640  0.5020991099725194
  0.2378417230876195  0.2541840572710754  0.5016281367879571
  0.7522445220236165  0.2522068207004367  0.2495641907007240
  0.7651893348591656  0.2464722721494681  0.0003211427717531
  0.7619013110078114  0.7465844520363589  0.0012063146478809
  0.2481201699371027  0.7480891408953170  0.2500910824452873
  0.7482264246962274  0.7519721244780868  0.2503912991652868
  0.2366607094454167  0.7553151930487587  0.5000276639167112
  0.2522376365945576  0.2479826626762787  0.2499931959872015
  0.2649295396380325  0.2437007527194339  0.9984656133123266
  0.7564869739789231  0.2522427219210854  0.7491162441490218
  0.7380196844245148  0.2566301821080188  0.5000808901792553
  0.7368093849501918  0.7552666260252963  0.4982408867658492
  0.2529767443914039  0.7489963078475341  0.7504612181659880
  0.7525729322631989  0.7515955469443512  0.7491881879872722
  0.2624848665134891  0.7436440642008435  0.9997113694619486
  0.2559654581291042  0.2482296750074013  0.7508290085482585
 
  0.00000000E+00  0.00000000E+00  0.00000000E+00
  0.00000000E+00  0.00000000E+00  0.00000000E+00
  0.00000000E+00  0.00000000E+00  0.00000000E+00
  0.00000000E+00  0.00000000E+00  0.00000000E+00
  0.00000000E+00  0.00000000E+00  0.00000000E+00
  0.00000000E+00  0.00000000E+00  0.00000000E+00
  0.00000000E+00  0.00000000E+00  0.00000000E+00
  0.00000000E+00  0.00000000E+00  0.00000000E+00
  0.00000000E+00  0.00000000E+00  0.00000000E+00
  0.00000000E+00  0.00000000E+00  0.00000000E+00
  0.00000000E+00  0.00000000E+00  0.00000000E+00
  0.00000000E+00  0.00000000E+00  0.00000000E+00
  0.00000000E+00  0.00000000E+00  0.00000000E+00
  0.00000000E+00  0.00000000E+00  0.00000000E+00
  0.00000000E+00  0.00000000E+00  0.00000000E+00
  0.00000000E+00  0.00000000E+00  0.00000000E+00
  0.00000000E+00  0.00000000E+00  0.00000000E+00
  0.00000000E+00  0.00000000E+00  0.00000000E+00
  0.00000000E+00  0.00000000E+00  0.00000000E+00
  0.00000000E+00  0.00000000E+00  0.00000000E+00
  0.00000000E+00  0.00000000E+00  0.00000000E+00
  0.00000000E+00  0.00000000E+00  0.00000000E+00
  0.00000000E+00  0.00000000E+00  0.00000000E+00
  0.00000000E+00  0.00000000E+00  0.00000000E+00
  0.00000000E+00  0.00000000E+00  0.00000000E+00
  0.00000000E+00  0.00000000E+00  0.00000000E+00
  0.00000000E+00  0.00000000E+00  0.00000000E+00
  0.00000000E+00  0.00000000E+00  0.00000000E+00
