slab                                    
   1.00000000000000     
     5.3407248930998428   -0.0012436677252075    0.0296506710754015
    -0.0012266289323678    5.3834540219921854   -0.0032615524686527
     0.0874787486264959   -0.0084507103331444   15.2677883263300380
   Sr   Ir   O 
     4     8    16
Direct
  0.5059701485799232 -0.0039261375477676  0.1262538572626048
 -0.0063017249475388  0.5002791380646053  0.3747186005360904
  0.4888720000418222  0.0006071441660284  0.6247916599382701
  0.0137991225358715  0.4998148420067702  0.8750356345627852
  0.0002630432021718 -0.0001162897554154  0.2488639744178104
  0.0119394551852338 -0.0047856627251724 -0.0020983678002523
  0.4997801369751987  0.5001420551061896  0.2511389966860452
  0.5151316538421178  0.4942216595076086  0.0019322623618914
  0.0008259727728966 -0.0000029347649619  0.7513759838728488
 -0.0150014008718409  0.0057887354156325  0.4980664621505734
  0.5071991332531539  0.4999788338536661  0.7485053890460915
  0.4881227774906006  0.5048860306430676  0.5020991099725163
  0.2378417230876196  0.2541840572710752  0.5016281367879578
  0.7522445220236177  0.2522068207004349  0.2495641907007214
  0.7651893348591687  0.2464722721494665  0.0003211427717553
  0.7619013110078097  0.7465844520363615  0.0012063146478838
  0.2481201699371053  0.7480891408953140  0.2500910824452858
  0.7482264246962279  0.7519721244780848  0.2503912991652866
  0.2366607094454176  0.7553151930487594  0.5000276639167134
  0.2522376365945606  0.2479826626762787  0.2499931959871998
  0.2649295396380319  0.2437007527194310  0.9984656133123274
  0.7564869739789247  0.2522427219210881  0.7491162441490196
  0.7380196844245155  0.2566301821080212  0.5000808901792524
  0.7368093849501897  0.7552666260252953  0.4982408867658489
  0.2529767443914070  0.7489963078475336  0.7504612181659871
  0.7525729322631973  0.7515955469443533  0.7491881879872753
  0.2624848665134868  0.7436440642008458 -0.0002886305380484
  0.2559654581291017  0.2482296750074028  0.7508290085482576
 
  0.00000000E+00  0.00000000E+00  0.00000000E+00
  0.00000000E+00  0.00000000E+00  0.00000000E+00
  0.00000000E+00  0.00000000E+00  0.00000000E+00
  0.00000000E+00  0.00000000E+00  0.00000000E+00
  0.00000000E+00  0.00000000E+00  0.00000000E+00
  0.00000000E+00  0.00000000E+00  0.00000000E+00
  0.00000000E+00  0.00000000E+00  0.00000000E+00
  0.00000000E+00  0.00000000E+00  0.00000000E+00
  0.00000000E+00  0.00000000E+00  0.00000000E+00
  0.00000000E+00  0.00000000E+00  0.00000000E+00
  0.00000000E+00  0.00000000E+00  0.00000000E+00
  0.00000000E+00  0.00000000E+00  0.00000000E+00
  0.00000000E+00  0.00000000E+00  0.00000000E+00
  0.00000000E+00  0.00000000E+00  0.00000000E+00
  0.00000000E+00  0.00000000E+00  0.00000000E+00
  0.00000000E+00  0.00000000E+00  0.00000000E+00
  0.00000000E+00  0.00000000E+00  0.00000000E+00
  0.00000000E+00  0.00000000E+00  0.00000000E+00
  0.00000000E+00  0.00000000E+00  0.00000000E+00
  0.00000000E+00  0.00000000E+00  0.00000000E+00
  0.00000000E+00  0.00000000E+00  0.00000000E+00
  0.00000000E+00  0.00000000E+00  0.00000000E+00
  0.00000000E+00  0.00000000E+00  0.00000000E+00
  0.00000000E+00  0.00000000E+00  0.00000000E+00
  0.00000000E+00  0.00000000E+00  0.00000000E+00
  0.00000000E+00  0.00000000E+00  0.00000000E+00
  0.00000000E+00  0.00000000E+00  0.00000000E+00
  0.00000000E+00  0.00000000E+00  0.00000000E+00
